p cnf 242 1028
61 -152 140 0
149 -17 156 0
60 -50 184 0
164 221 -39 0
-100 190 -4 0
-152 -11 78 0
-153 -185 -236 0
-102 -187 206 0
94 25 -10 0
-112 200 -161 0
-147 -90 -137 0
175 235 -238 0
179 -42 -221 0
27 -183 -168 0
73 -32 17 0
89 205 18 0
197 -107 -224 0
97 -184 -151 0
130 61 -10 0
9 51 -105 0
223 87 -81 0
-97 -118 -223 0
-144 -27 159 0
163 185 -184 0
134 -78 -141 0
-81 -6 97 0
161 -86 -120 0
72 189 -126 0
95 -65 161 0
-94 -48 81 0
-202 97 -27 0
-189 -34 80 0
84 -48 174 0
-83 86 -173 0
-44 21 -87 0
70 -58 202 0
207 215 -148 0
-165 -22 207 0
133 204 218 0
108 146 105 0
-123 -242 214 0
238 184 -57 0
-192 -133 -74 0
220 151 74 0
-206 -178 -132 0
148 13 -4 0
-62 170 -6 0
157 -30 -88 0
208 201 -16 0
210 31 -44 0
33 -211 -236 0
13 -194 -70 0
-14 122 83 0
33 12 32 0
-183 23 132 0
90 99 166 0
85 110 -32 0
204 21 -146 0
-201 139 -98 0
14 -96 161 0
178 108 118 0
152 19 -206 0
-240 -84 -96 0
32 -119 -177 0
228 136 203 0
-137 27 208 0
-199 -100 -12 0
97 -46 210 0
217 -30 173 0
77 -205 -23 0
-184 62 -28 0
-141 -84 223 0
47 -166 -64 0
65 95 154 0
22 -97 -129 0
-42 -107 -177 0
-176 -124 40 0
25 -128 -192 0
151 185 220 0
-150 -132 -81 0
-200 76 -172 0
150 69 228 0
-98 52 45 0
-222 37 -108 0
-120 -149 214 0
-185 -19 -220 0
12 120 -234 0
-173 18 56 0
-67 -36 48 0
-240 66 44 0
187 205 -22 0
-10 -92 116 0
86 85 -112 0
191 126 -101 0
20 -171 -111 0
-25 -136 241 0
-116 -76 -170 0
-68 28 -194 0
135 30 -171 0
-174 -187 -145 0
-39 -46 95 0
-239 -144 -37 0
-108 143 77 0
46 181 -18 0
148 190 101 0
224 35 -11 0
132 91 -225 0
198 -18 91 0
152 -26 -175 0
-48 -179 49 0
-192 -33 -152 0
-140 136 44 0
-201 76 8 0
-209 -99 -81 0
136 -176 181 0
-154 49 -187 0
-60 126 45 0
-136 -55 -10 0
-29 -145 73 0
-203 23 -160 0
-130 -20 128 0
-223 89 -178 0
-199 -238 9 0
207 53 -239 0
57 125 81 0
52 181 42 0
-219 109 54 0
194 177 103 0
66 -94 -218 0
58 -1 206 0
118 137 -50 0
129 44 163 0
-126 48 16 0
9 181 183 0
7 233 227 0
43 -86 -160 0
207 -187 75 0
239 77 -126 0
162 -89 -82 0
152 -159 1 0
129 -10 -124 0
52 -231 -194 0
241 -169 -9 0
101 23 -76 0
-141 -86 138 0
190 -222 188 0
48 93 -206 0
-124 -89 -69 0
235 182 179 0
-182 193 -6 0
170 -25 -82 0
225 157 -224 0
166 86 -95 0
-235 27 87 0
-167 -54 -62 0
37 150 3 0
218 -144 -132 0
-202 227 -138 0
11 212 -207 0
52 242 229 0
-212 -213 -175 0
224 -180 -89 0
-75 -214 242 0
139 -2 119 0
50 -125 -193 0
109 -201 166 0
215 16 86 0
-83 -43 -192 0
-189 -157 119 0
-49 232 -160 0
-105 121 -151 0
48 229 -25 0
16 -164 121 0
111 10 -89 0
37 27 114 0
-40 125 196 0
207 225 163 0
-119 122 -135 0
74 8 -119 0
-192 63 239 0
136 -39 138 0
198 -204 120 0
142 9 126 0
-87 -214 14 0
-68 64 173 0
12 -8 110 0
195 207 -145 0
-203 106 131 0
5 -44 -12 0
-232 -118 -120 0
155 -132 107 0
-19 -176 36 0
91 114 117 0
136 -40 148 0
218 -60 212 0
-82 148 154 0
182 193 234 0
-9 -132 -125 0
50 -80 -236 0
102 -81 -13 0
-82 157 101 0
106 -231 -21 0
-179 -135 -30 0
-210 -226 -2 0
111 69 -124 0
-45 61 -125 0
-46 -177 120 0
-14 47 -195 0
34 -224 -38 0
98 200 28 0
27 34 30 0
-235 155 20 0
37 -123 -63 0
27 181 217 0
192 219 -201 0
-79 -114 39 0
-153 -76 239 0
220 -216 43 0
-155 15 -105 0
-41 -223 -32 0
135 179 -197 0
-84 38 -152 0
-96 -164 -82 0
-186 -240 89 0
77 -70 -47 0
88 187 166 0
-34 -123 -86 0
-136 134 114 0
-141 217 -157 0
99 55 -20 0
-227 31 -111 0
-4 77 96 0
167 176 225 0
-1 95 17 0
83 112 -73 0
-81 -137 -114 0
234 -55 -113 0
238 -97 58 0
49 -31 211 0
204 -90 98 0
71 -36 -100 0
169 -77 -112 0
225 -22 -17 0
17 -218 -3 0
25 212 -169 0
-227 -83 52 0
-133 -7 -232 0
-22 -47 -60 0
-102 -73 -89 0
52 -147 -77 0
94 -159 -133 0
-220 185 -189 0
220 -80 162 0
211 -27 -241 0
216 55 81 0
-99 -226 218 0
94 100 58 0
178 88 188 0
145 44 -63 0
94 -156 60 0
139 109 154 0
-21 202 -138 0
69 134 231 0
129 -125 -89 0
30 -184 -108 0
28 90 -136 0
39 221 -237 0
-211 -163 -52 0
-152 -78 -150 0
-106 215 237 0
-174 144 189 0
-47 -64 76 0
29 -83 142 0
139 101 -120 0
-28 -186 15 0
171 -43 -31 0
223 143 132 0
-176 81 -59 0
123 96 -112 0
-68 147 200 0
-67 -203 89 0
181 -35 193 0
-30 84 -213 0
69 -131 -35 0
-130 -145 176 0
-76 140 70 0
44 -111 164 0
-187 -54 218 0
-161 -143 145 0
41 56 190 0
-30 -140 87 0
36 -23 160 0
-179 22 162 0
170 -157 114 0
73 175 179 0
-186 84 -214 0
-100 -3 -207 0
161 -58 113 0
59 41 -107 0
-30 140 171 0
7 151 -87 0
164 -196 154 0
151 110 -164 0
129 -136 -26 0
38 -113 133 0
94 135 76 0
-64 190 237 0
-160 -2 -15 0
13 -89 173 0
200 -79 206 0
-167 12 30 0
-191 -101 136 0
43 -22 -173 0
-127 -18 93 0
-183 86 144 0
241 -8 83 0
122 192 66 0
123 108 193 0
-62 150 13 0
-26 168 46 0
108 145 148 0
188 -210 193 0
135 57 -36 0
-165 -106 187 0
-123 97 129 0
-102 15 166 0
-145 -229 -176 0
-36 102 199 0
-55 236 76 0
-38 -41 56 0
-161 114 132 0
88 -82 142 0
22 -53 -228 0
-86 59 190 0
56 -214 139 0
-165 -77 -209 0
-210 150 19 0
89 -56 -232 0
117 -110 65 0
74 -213 135 0
171 -23 -28 0
-204 168 200 0
148 32 -7 0
58 84 -13 0
-105 229 86 0
182 113 -197 0
95 217 -219 0
217 -118 -97 0
240 140 85 0
121 19 -184 0
169 -222 45 0
21 93 139 0
-4 157 -14 0
-129 -116 -90 0
-174 -112 225 0
196 -24 171 0
-170 86 8 0
-32 131 -228 0
-191 -159 78 0
-50 180 -138 0
-112 33 -180 0
-172 -121 35 0
162 73 -20 0
113 -207 -100 0
-75 -87 89 0
19 48 238 0
131 111 211 0
154 188 -94 0
-136 -170 212 0
-134 -191 -126 0
-77 -23 -218 0
102 183 43 0
144 -233 -148 0
-161 61 117 0
-50 209 133 0
-126 -154 -12 0
-46 161 -118 0
133 122 88 0
226 138 19 0
41 84 -25 0
-122 182 -131 0
59 174 82 0
221 201 210 0
172 -180 -104 0
-239 166 -179 0
108 79 -94 0
25 -105 191 0
-64 176 20 0
-95 48 110 0
-6 238 -60 0
192 209 -99 0
-59 94 227 0
-68 50 -36 0
-227 136 -151 0
-193 -212 -104 0
101 24 -53 0
-170 148 93 0
-232 -179 -170 0
-40 165 -89 0
-227 -155 195 0
-178 211 -102 0
-134 60 96 0
-231 193 -31 0
-5 -169 225 0
-203 -212 160 0
-92 33 -191 0
-206 122 -197 0
-42 -174 220 0
50 -210 91 0
16 143 108 0
106 -209 78 0
20 119 -50 0
30 68 -140 0
-72 -195 -164 0
83 222 -105 0
38 -51 160 0
44 137 -197 0
-6 231 -27 0
107 200 57 0
-185 78 173 0
23 177 -90 0
-37 61 -58 0
16 227 -223 0
226 -18 164 0
29 198 201 0
35 143 -225 0
240 7 76 0
-31 -104 -219 0
-58 -170 227 0
-120 -205 222 0
-155 -99 -30 0
-43 23 -20 0
-61 -83 210 0
235 -179 118 0
-227 92 152 0
10 18 46 0
-182 -159 -121 0
183 230 -99 0
-91 53 -167 0
140 192 161 0
-150 -55 126 0
-19 -158 -224 0
175 -64 50 0
169 -163 -233 0
-40 -181 176 0
45 -130 -117 0
-102 191 113 0
98 -203 -78 0
81 -226 -28 0
67 -182 119 0
-146 183 157 0
98 184 127 0
-225 150 74 0
228 49 -186 0
-157 206 97 0
-194 2 97 0
-46 -214 180 0
-146 -91 -233 0
161 -89 -7 0
151 72 126 0
-184 -231 10 0
-64 210 -83 0
2 97 -218 0
143 35 -171 0
-25 18 19 0
177 -83 81 0
20 -88 29 0
45 -215 -213 0
-96 -143 86 0
22 88 -215 0
34 121 142 0
26 -102 -17 0
145 -62 65 0
-161 -188 -213 0
221 -40 -51 0
-194 61 -20 0
-63 203 72 0
-231 95 -86 0
146 231 -220 0
-179 176 -67 0
-79 -183 -51 0
122 30 -131 0
-13 86 -16 0
78 -95 -230 0
-39 -81 -134 0
179 -80 225 0
-107 60 -219 0
200 28 217 0
220 83 -73 0
-231 5 -31 0
38 -185 155 0
-85 160 110 0
-97 213 -130 0
41 232 215 0
-33 202 56 0
-105 177 134 0
-130 164 -67 0
-144 192 209 0
-158 -164 176 0
-176 -88 43 0
-7 65 -112 0
8 -148 -141 0
75 114 -212 0
76 -14 -92 0
-167 88 -40 0
17 164 4 0
-170 -150 212 0
-95 117 -182 0
-129 26 47 0
-17 -50 73 0
83 181 56 0
81 -152 -167 0
34 -149 179 0
-34 -233 -158 0
143 -49 -174 0
125 -78 -232 0
-91 163 -221 0
165 -179 192 0
-232 -233 161 0
-93 119 -226 0
110 -172 -113 0
92 75 237 0
212 233 31 0
-116 -136 119 0
-198 215 -1 0
-117 78 -235 0
83 -103 -214 0
127 242 -175 0
55 -34 -199 0
-117 -77 169 0
32 108 168 0
125 -24 -229 0
230 -6 -192 0
-172 -219 -182 0
-196 121 -235 0
31 -4 156 0
-64 -175 -25 0
223 242 225 0
239 138 -162 0
80 -232 83 0
191 -36 -78 0
136 117 -29 0
96 -212 152 0
-53 -78 -189 0
-6 -22 -196 0
-131 -101 139 0
-178 -53 -143 0
-90 -94 -61 0
-147 -103 20 0
194 -56 99 0
95 193 214 0
54 135 188 0
-93 90 -109 0
-171 153 104 0
191 -140 102 0
-19 113 140 0
-216 -96 126 0
55 145 -228 0
-124 -140 -192 0
74 -184 212 0
-226 49 -62 0
-165 115 180 0
-96 235 -51 0
209 24 -214 0
-84 58 182 0
-67 -177 -179 0
210 -12 -158 0
-20 73 156 0
224 -226 176 0
194 20 -216 0
-135 -102 19 0
113 7 -71 0
-93 -171 213 0
-188 -71 -208 0
181 -101 14 0
144 -95 33 0
23 -229 -233 0
-63 133 -151 0
161 44 -209 0
-153 -76 125 0
6 121 192 0
97 76 -198 0
-187 96 30 0
-17 53 229 0
-227 -62 -159 0
80 -20 46 0
241 -13 -11 0
158 -91 -146 0
78 -97 132 0
172 -1 103 0
161 37 -34 0
-45 117 -61 0
217 -11 72 0
-182 -152 -77 0
-70 171 -167 0
-46 -81 -218 0
-48 -110 -172 0
-79 -179 41 0
-233 237 -121 0
48 59 104 0
-74 51 -178 0
239 -229 -109 0
-186 116 -103 0
-40 90 -13 0
230 -119 30 0
161 157 87 0
-72 79 218 0
-100 -39 -12 0
-86 -88 -45 0
-176 173 57 0
-128 -91 182 0
172 -194 -112 0
88 233 -43 0
-227 78 -100 0
-115 -189 -197 0
-20 -44 196 0
75 195 -38 0
73 -207 162 0
-85 -43 -110 0
-212 146 72 0
143 -152 -118 0
-10 192 106 0
-222 240 104 0
-138 182 -59 0
-107 -185 -66 0
-11 -231 -154 0
-126 -141 -67 0
-37 -21 -239 0
236 -178 188 0
82 175 -6 0
-16 -140 206 0
177 152 -118 0
117 163 -187 0
55 143 25 0
113 -25 -46 0
-97 73 -145 0
-180 185 -16 0
62 140 240 0
116 -34 -196 0
-112 12 -7 0
-63 -96 8 0
191 -31 -223 0
-153 -30 219 0
-13 -202 46 0
129 222 13 0
74 204 -122 0
-115 -145 225 0
121 -102 -151 0
146 -218 127 0
34 106 -50 0
69 145 68 0
7 -17 50 0
5 -138 63 0
-203 -217 -74 0
-174 -133 -226 0
-14 -227 238 0
-165 151 217 0
-3 242 153 0
-108 193 -130 0
184 -120 236 0
-164 57 109 0
-54 174 31 0
23 95 -182 0
107 9 222 0
178 -45 21 0
-147 90 55 0
110 210 211 0
114 -29 -168 0
-237 217 -204 0
-77 -8 -200 0
74 69 111 0
3 -25 108 0
70 191 -55 0
-68 -207 26 0
-228 -140 74 0
40 -95 8 0
-166 50 -8 0
137 -171 22 0
217 -10 -83 0
115 -23 220 0
48 -217 -78 0
-38 102 -118 0
217 70 211 0
-202 225 193 0
117 -153 95 0
-52 55 54 0
144 -131 210 0
9 -3 -24 0
92 154 -62 0
-215 -231 44 0
-171 4 -234 0
-8 184 -173 0
-102 -146 112 0
-117 39 123 0
209 -142 -84 0
-192 -109 -235 0
65 51 136 0
-62 -5 187 0
-158 194 -11 0
42 -111 61 0
20 -1 30 0
206 145 -129 0
60 92 108 0
-62 -10 20 0
-71 32 107 0
-122 -24 -156 0
82 -186 -2 0
177 -89 34 0
-178 108 85 0
-155 178 -64 0
21 -174 -237 0
181 199 -47 0
-197 -70 -179 0
92 107 -172 0
-167 -189 221 0
237 194 -169 0
-112 -201 18 0
174 214 211 0
-233 -127 -167 0
13 -221 -6 0
212 -40 -220 0
-219 79 131 0
139 81 140 0
7 -137 10 0
-94 218 -152 0
41 -86 -141 0
-163 -37 -87 0
-2 90 125 0
60 -117 -238 0
-33 182 185 0
185 13 37 0
224 -21 84 0
110 108 -139 0
103 -185 165 0
37 17 -63 0
3 217 41 0
-209 -88 214 0
47 -8 124 0
-127 133 -17 0
225 -203 -34 0
-76 6 -103 0
71 138 -108 0
-64 -214 -207 0
-145 -81 173 0
36 -165 -236 0
-66 -3 227 0
-86 97 -71 0
215 107 -116 0
-240 99 -48 0
-207 35 137 0
-24 -126 -209 0
168 133 -59 0
-179 110 71 0
194 -157 -236 0
-83 -219 74 0
49 100 -71 0
-179 -123 -125 0
-101 226 -122 0
152 140 -91 0
-171 12 80 0
-13 -3 198 0
88 -210 -202 0
-217 228 233 0
223 75 -34 0
79 230 -78 0
156 -141 214 0
-169 221 -62 0
-57 -147 66 0
-191 22 56 0
90 159 143 0
74 241 15 0
93 -33 26 0
-17 -99 -95 0
140 90 -6 0
59 -87 50 0
52 136 -196 0
-242 -55 21 0
33 -151 -199 0
227 98 -200 0
191 78 53 0
105 -185 103 0
177 209 114 0
26 57 -160 0
177 -157 162 0
-187 21 -67 0
-83 226 -99 0
-124 78 -92 0
25 -112 146 0
-192 238 107 0
49 240 70 0
57 173 167 0
-96 4 -66 0
-174 218 -130 0
-77 199 -141 0
-10 -124 173 0
-169 -62 106 0
-68 -208 57 0
229 231 -232 0
90 -21 120 0
-83 124 75 0
4 -30 83 0
-106 -166 107 0
-85 121 -214 0
215 218 102 0
104 -135 -201 0
167 -149 166 0
-22 -167 -238 0
43 -86 80 0
-159 -96 -150 0
-181 -233 -167 0
110 7 -19 0
148 156 57 0
82 35 190 0
161 -95 -33 0
65 -162 137 0
70 47 -222 0
203 28 34 0
136 -109 -54 0
105 -199 -78 0
66 -158 -142 0
220 184 -77 0
-83 -206 166 0
222 224 158 0
78 59 -185 0
-51 145 -185 0
-137 -158 -200 0
98 -201 -24 0
136 -16 129 0
111 -240 2 0
-232 87 -159 0
-100 201 170 0
124 35 233 0
200 22 -222 0
241 81 110 0
100 9 87 0
172 210 -99 0
-23 226 -20 0
-23 198 -220 0
-34 209 228 0
103 18 -215 0
-83 -74 -49 0
199 104 125 0
57 136 -117 0
163 -214 -128 0
-146 -57 -73 0
182 -198 173 0
-103 42 4 0
-226 -240 -58 0
-26 -138 -140 0
-172 -29 103 0
233 -145 16 0
-63 -198 -6 0
50 -66 156 0
215 38 -136 0
-93 -79 -181 0
91 -16 242 0
131 223 145 0
33 102 -114 0
-240 22 -130 0
209 -141 123 0
-174 235 -44 0
-125 -40 1 0
-206 -9 61 0
-5 -45 218 0
-90 -99 123 0
169 207 -241 0
236 -109 78 0
-17 -121 -104 0
-216 -101 -205 0
82 130 -172 0
-209 -57 41 0
-125 -60 233 0
-206 137 49 0
-159 -147 136 0
183 -233 -53 0
13 -11 -227 0
86 138 157 0
-51 -198 -223 0
231 -38 -7 0
-138 235 -125 0
-201 18 -187 0
68 127 205 0
152 192 -121 0
183 241 137 0
185 73 -232 0
-38 227 224 0
-109 -223 -108 0
134 66 147 0
-154 -146 -70 0
-76 220 62 0
217 -203 -6 0
-206 52 -204 0
67 153 215 0
-213 -233 -205 0
170 -126 93 0
-82 49 160 0
23 212 123 0
-155 -41 69 0
-151 -83 211 0
88 -126 76 0
-32 132 -104 0
-166 137 -216 0
-66 -77 57 0
-224 240 129 0
-113 -198 83 0
14 77 -107 0
-215 -5 -159 0
242 13 86 0
-236 180 -88 0
223 199 -24 0
-15 39 91 0
-111 -125 89 0
136 107 -237 0
43 151 -239 0
49 -154 233 0
202 -144 -169 0
-106 45 -131 0
-237 -120 -36 0
-162 -174 -232 0
-216 37 -234 0
-140 108 33 0
-10 194 -28 0
-33 -122 35 0
-81 98 -163 0
-84 -145 156 0
28 -170 181 0
131 171 -135 0
-65 -86 218 0
-97 -188 -142 0
-185 -24 28 0
181 -97 -172 0
155 -114 -100 0
-49 -117 -63 0
125 -96 42 0
-7 100 12 0
218 -172 186 0
207 -174 181 0
13 74 122 0
90 -222 223 0
-90 -39 215 0
150 -116 32 0
-208 -113 31 0
-122 178 -177 0
111 -214 97 0
-79 -242 75 0
-182 -209 29 0
78 22 62 0
131 -109 123 0
50 28 78 0
102 66 232 0
109 86 116 0
-140 -75 186 0
-63 -113 -186 0
-204 -135 -157 0
72 61 142 0
-47 -233 52 0
-134 -145 18 0
50 192 207 0
237 167 13 0
-223 97 -123 0
-226 137 -3 0
-100 191 -45 0
-43 -20 136 0
240 -216 127 0
50 -166 221 0
120 -235 -85 0
170 150 78 0
-173 45 109 0
39 -22 11 0
70 108 -234 0
-201 -54 197 0
-70 -190 -33 0
102 -81 -33 0
175 127 -235 0
-73 82 8 0
211 183 207 0
131 -100 36 0
-114 -152 27 0
67 -128 -144 0
173 45 -16 0
126 220 65 0
138 213 -207 0
-16 149 102 0
-56 -180 -103 0
-231 -48 -222 0
92 222 -108 0
-76 -54 128 0
144 -16 104 0
-21 70 -131 0
-123 189 -212 0
-42 -18 204 0
-148 -76 90 0
58 149 141 0
108 -13 240 0
65 239 -198 0
-168 63 51 0
25 -172 5 0
101 -59 -47 0
34 -23 -216 0
-131 -191 -8 0
3 200 25 0
107 66 -82 0
-140 64 66 0
75 -221 -182 0
-75 -215 150 0
93 -227 147 0
146 -52 57 0
97 130 101 0
-208 -140 141 0
-76 -228 -184 0
154 -15 28 0
-118 6 -60 0
-78 -36 -111 0
-229 47 177 0
-25 -71 -1 0
46 -188 177 0
-135 -224 -184 0
12 76 137 0
143 209 220 0
57 -114 -228 0
-152 -40 -223 0
171 -104 -76 0
69 -60 187 0
-204 238 -41 0
-210 -30 145 0
212 208 -206 0
-230 107 108 0
-206 -240 4 0
