p cnf 238 1011
221 218 15 0
208 -172 -219 0
-149 -175 -41 0
-221 131 96 0
10 -223 -8 0
-109 -229 227 0
7 -46 84 0
132 -173 -144 0
-189 135 -233 0
93 -220 -115 0
119 168 136 0
132 -213 -204 0
-119 -90 146 0
-169 -57 -84 0
-158 69 -198 0
-181 -213 -130 0
105 -80 -188 0
-160 226 20 0
209 -49 191 0
-152 59 -175 0
-219 -69 63 0
230 184 195 0
173 7 22 0
236 -6 96 0
48 -134 -178 0
64 -39 -10 0
192 29 74 0
197 155 190 0
160 181 -40 0
81 -215 -27 0
133 -150 200 0
-88 67 68 0
143 36 172 0
25 -117 -163 0
-9 64 60 0
-59 -160 203 0
-109 72 135 0
-42 29 132 0
47 193 -60 0
-117 80 -138 0
54 -187 -207 0
-14 -226 -108 0
170 -206 -123 0
-157 -94 75 0
224 176 -106 0
-173 212 -5 0
-119 54 228 0
96 -79 186 0
-147 96 101 0
228 32 -66 0
-165 101 -55 0
-199 12 -186 0
37 -205 96 0
-187 -206 108 0
-60 -41 -126 0
-179 -236 22 0
92 46 140 0
-23 -234 230 0
-76 -100 60 0
45 -135 -74 0
194 109 -25 0
44 -230 41 0
-92 201 196 0
8 -208 153 0
14 -124 -71 0
181 -166 -121 0
-234 -169 21 0
-160 49 -104 0
235 -3 -81 0
167 46 209 0
-146 -156 99 0
-209 143 -197 0
-149 50 -126 0
-112 124 -65 0
195 19 -90 0
-169 -17 -194 0
-118 69 225 0
-194 -89 -45 0
-66 -173 161 0
-42 -128 98 0
-73 143 -120 0
98 -145 114 0
-35 -124 177 0
212 -81 78 0
-165 101 -133 0
-101 153 -136 0
23 79 11 0
72 -16 29 0
94 55 82 0
128 -114 -223 0
-114 164 56 0
-61 -121 49 0
36 -204 -35 0
-103 207 -211 0
-153 -129 -149 0
-193 -183 -223 0
-184 -75 137 0
102 -124 45 0
23 -229 237 0
8 27 -90 0
188 -195 167 0
-214 153 -100 0
-93 81 52 0
53 85 65 0
49 -64 182 0
-96 -166 197 0
-17 111 -114 0
-217 -30 -87 0
-59 14 -101 0
-140 -215 -160 0
-127 103 216 0
116 -12 225 0
-236 175 129 0
205 -182 3 0
-7 38 -110 0
-167 120 13 0
36 -144 8 0
52 -140 236 0
136 225 62 0
30 -64 -28 0
-161 -98 -87 0
-184 -135 -130 0
-214 210 39 0
77 88 111 0
-77 208 26 0
196 -126 -72 0
-169 -27 8 0
-101 -149 -11 0
-180 -185 -122 0
-58 214 37 0
-28 -36 -163 0
-24 -176 -231 0
-41 211 -84 0
-146 -18 106 0
77 -169 221 0
234 5 -55 0
-152 135 -192 0
-178 -44 -202 0
99 122 157 0
-50 194 121 0
-95 155 -161 0
169 -148 -227 0
138 215 -211 0
51 81 -15 0
88 211 -113 0
73 149 -148 0
-97 185 17 0
-22 -127 123 0
-77 218 -220 0
-224 86 152 0
165 -55 144 0
-160 188 101 0
102 122 98 0
135 -210 -227 0
14 100 182 0
-94 -131 -93 0
-181 118 189 0
11 34 -167 0
158 -38 -166 0
-139 23 174 0
80 131 -170 0
-196 -88 176 0
-201 -90 94 0
-123 -230 73 0
-88 112 -215 0
-137 184 -13 0
157 198 112 0
-158 -12 -5 0
173 -47 -76 0
145 202 230 0
238 153 234 0
2 -178 -104 0
-57 -14 135 0
235 201 -33 0
-14 147 47 0
-211 205 -223 0
33 219 90 0
-39 164 106 0
119 -49 109 0
162 -9 211 0
-216 -7 -233 0
64 -120 -183 0
-233 -170 64 0
194 -93 108 0
168 -169 -100 0
-117 24 -190 0
-197 -183 -179 0
-43 -38 60 0
-128 182 -185 0
147 -235 -104 0
-68 172 81 0
117 -26 30 0
82 -188 104 0
21 -135 154 0
227 25 155 0
183 182 -14 0
158 -2 225 0
190 157 -84 0
146 -154 186 0
55 -147 -94 0
-47 -230 -62 0
54 -151 -120 0
131 -221 -42 0
167 -47 -174 0
217 -125 -158 0
-181 56 -1 0
190 -48 70 0
225 30 79 0
20 -119 -46 0
234 -165 -17 0
-234 -207 230 0
-7 141 -228 0
48 151 79 0
87 -118 -201 0
-90 -163 -79 0
40 209 237 0
-96 -199 -19 0
184 -158 -35 0
-51 -80 142 0
-39 -185 19 0
-189 127 107 0
17 -228 161 0
24 -230 37 0
-77 -199 146 0
-59 147 186 0
-24 225 -48 0
10 214 -86 0
-237 -48 135 0
176 -97 38 0
-69 158 -139 0
147 -185 -159 0
-182 19 138 0
174 117 173 0
89 28 -101 0
91 142 62 0
-34 187 -213 0
166 77 196 0
177 25 214 0
220 98 210 0
-69 -208 -66 0
80 -145 107 0
-76 101 -45 0
-118 135 109 0
3 -66 -238 0
-229 215 -218 0
-41 -56 -95 0
-111 -33 -131 0
42 222 -19 0
-24 189 -96 0
11 112 -144 0
60 42 -187 0
52 -147 -212 0
156 -68 41 0
234 184 -14 0
-75 188 232 0
13 -54 95 0
129 226 65 0
-58 47 99 0
-76 -19 169 0
-230 -214 17 0
-94 -55 175 0
-172 -233 199 0
2 -20 -53 0
213 228 135 0
5 165 151 0
-100 -171 232 0
61 -56 227 0
223 9 148 0
56 -210 -172 0
-209 -1 -44 0
73 -85 -177 0
-146 202 -64 0
54 55 -100 0
145 -79 -168 0
-80 -170 -11 0
-129 169 -36 0
160 -109 153 0
-138 -48 -166 0
-17 119 21 0
-49 123 -96 0
27 87 -88 0
-121 -207 -84 0
2 -30 -54 0
195 58 53 0
-100 -29 -107 0
-7 193 -226 0
236 -52 213 0
236 -138 -233 0
198 -153 78 0
-8 -234 -2 0
-118 -120 -5 0
59 210 -180 0
-72 201 -195 0
22 109 217 0
-153 160 -38 0
58 51 220 0
-224 82 183 0
-186 171 -182 0
-142 165 -193 0
136 104 -69 0
-227 -108 -62 0
43 226 177 0
138 180 -33 0
-174 176 -35 0
-10 212 -233 0
-47 -41 -128 0
142 157 218 0
162 -54 -198 0
-56 -176 124 0
195 -5 -10 0
136 56 -210 0
169 -44 143 0
-140 218 -32 0
-14 -157 191 0
-154 153 148 0
-150 235 -88 0
55 224 153 0
-176 -125 -102 0
107 -18 83 0
216 -208 -65 0
120 -187 -202 0
-1 -192 154 0
110 -108 157 0
231 -2 -66 0
90 -56 211 0
236 233 -87 0
47 169 -211 0
221 -198 -138 0
151 -234 143 0
21 233 134 0
224 175 149 0
-217 -69 236 0
128 213 -137 0
156 -213 22 0
-7 75 209 0
80 -102 -180 0
69 156 97 0
74 2 -51 0
-146 49 194 0
33 6 13 0
80 36 71 0
221 108 213 0
-37 177 137 0
-70 209 159 0
-228 212 128 0
234 -215 -97 0
-81 -56 147 0
-25 215 48 0
137 -58 168 0
129 -66 136 0
49 59 31 0
-162 178 199 0
114 -8 227 0
226 60 153 0
-230 -71 -94 0
9 -41 -200 0
-231 -219 145 0
139 56 -206 0
-149 155 -61 0
-178 187 -210 0
-52 3 18 0
154 152 194 0
-162 -3 -176 0
-232 6 98 0
172 31 117 0
25 -69 112 0
-98 50 108 0
167 -56 19 0
186 50 -56 0
-234 -47 -115 0
-214 23 -7 0
61 213 57 0
-36 176 -80 0
118 -36 80 0
-39 -136 179 0
-105 -127 99 0
-128 -120 -122 0
64 -190 -90 0
-153 -65 -152 0
151 -202 -107 0
136 -159 -38 0
27 12 -13 0
45 81 97 0
-155 39 48 0
29 48 54 0
201 -62 -87 0
-137 -39 86 0
-34 141 -61 0
-113 13 137 0
-9 47 210 0
-201 153 5 0
159 179 121 0
-155 166 132 0
201 81 158 0
-158 -157 76 0
226 -18 25 0
31 82 -13 0
-39 92 -165 0
-37 -24 69 0
-204 -63 -2 0
183 9 99 0
-118 -204 43 0
-214 -62 -103 0
48 145 -146 0
-79 236 230 0
-123 -141 4 0
195 -122 -132 0
181 140 152 0
-170 199 7 0
-192 32 132 0
66 82 127 0
-208 -199 232 0
47 211 -170 0
134 218 219 0
201 9 229 0
126 -218 -5 0
-186 217 -196 0
-162 197 -17 0
-39 53 -137 0
74 124 187 0
-70 -153 -5 0
-98 -113 129 0
158 173 89 0
5 156 -131 0
-5 -177 226 0
-114 -82 -197 0
-70 -40 184 0
-70 -166 82 0
-141 205 -74 0
36 -78 145 0
-158 68 -176 0
-205 -149 199 0
-27 -224 -156 0
231 -193 -155 0
-12 193 7 0
-52 -117 214 0
96 -104 -86 0
-62 -123 -190 0
-176 -213 158 0
101 137 -39 0
-175 -222 101 0
162 79 -16 0
68 76 206 0
96 -215 -233 0
100 180 -196 0
10 165 -136 0
205 46 -50 0
203 25 226 0
-137 50 -161 0
169 -201 50 0
-160 -48 -171 0
211 181 -90 0
71 3 -187 0
-142 14 -35 0
-93 -44 185 0
16 -107 -210 0
144 -212 33 0
88 -205 153 0
228 -211 30 0
-113 -199 25 0
-125 -146 79 0
-76 115 48 0
-201 -66 -203 0
157 15 222 0
-167 119 -213 0
-70 -55 233 0
114 -161 95 0
-186 -96 188 0
-209 -188 73 0
18 156 -33 0
131 234 3 0
175 182 -173 0
71 61 159 0
-78 -111 104 0
205 102 193 0
187 -100 57 0
-106 125 30 0
48 168 64 0
-216 234 2 0
214 74 222 0
135 227 147 0
41 24 -9 0
-87 36 -216 0
104 -198 -70 0
-138 -100 196 0
-135 -86 101 0
-72 113 198 0
-53 -211 -202 0
168 83 -20 0
196 -3 -110 0
172 -230 -179 0
-13 -238 157 0
-49 183 24 0
-67 134 95 0
-36 -24 152 0
-40 41 -196 0
-148 -96 -229 0
-86 237 -18 0
62 180 -141 0
-164 -136 128 0
89 -205 -171 0
-4 212 71 0
149 77 137 0
-94 -109 168 0
-27 135 -55 0
-57 -114 -78 0
-89 50 -203 0
-143 95 -86 0
-48 151 -180 0
-218 -89 -49 0
-154 -55 -197 0
174 -57 -194 0
-74 -232 87 0
115 -203 175 0
68 -53 -210 0
-10 127 207 0
-152 196 123 0
30 225 -230 0
200 80 -184 0
-158 10 -40 0
-149 14 -161 0
158 -148 -226 0
-158 -52 207 0
61 -48 -87 0
234 220 187 0
-119 199 68 0
111 -210 188 0
91 197 101 0
40 127 -228 0
-206 76 59 0
205 62 -148 0
118 237 147 0
-228 48 213 0
88 -75 104 0
203 79 -50 0
50 -64 180 0
-149 -111 -123 0
-203 34 13 0
148 99 122 0
-117 -202 -235 0
-88 -45 -116 0
-102 56 23 0
-121 -226 26 0
95 83 -105 0
-46 86 -153 0
73 -137 193 0
208 -58 161 0
-217 148 -30 0
-72 189 21 0
171 164 30 0
167 -113 64 0
-218 121 -153 0
224 39 -172 0
-121 74 145 0
7 174 -224 0
6 -77 -227 0
86 -34 124 0
-177 -148 204 0
-109 -101 233 0
207 222 -63 0
75 -165 122 0
-89 217 147 0
211 36 165 0
141 -74 -22 0
48 -162 33 0
-54 -2 65 0
19 -26 67 0
109 30 -200 0
-218 38 121 0
27 -58 97 0
174 120 -183 0
-46 126 -114 0
64 -185 -15 0
-163 -190 6 0
63 -111 -25 0
-159 155 197 0
-136 -210 -149 0
-32 -139 -70 0
-5 -233 -4 0
-167 100 168 0
-110 197 11 0
69 -224 32 0
42 -9 32 0
150 -189 -185 0
-54 181 107 0
84 -207 -94 0
-98 190 25 0
84 102 235 0
-92 -224 23 0
-203 -138 -127 0
204 -161 -102 0
-99 -224 54 0
-188 125 210 0
-143 -142 -93 0
230 34 -24 0
-3 -188 -210 0
-216 209 130 0
-216 -75 184 0
-122 107 117 0
-130 -16 140 0
-93 50 22 0
-125 204 211 0
-129 -208 143 0
-32 100 -236 0
-127 18 94 0
5 139 59 0
-114 174 -70 0
36 10 46 0
-116 164 -237 0
43 45 31 0
27 -86 -30 0
68 -40 -176 0
-80 111 7 0
15 112 108 0
170 137 -122 0
-128 -51 -21 0
101 94 177 0
-149 158 114 0
-139 177 160 0
48 98 235 0
162 83 44 0
208 -176 -130 0
223 220 -222 0
-202 -164 -77 0
147 -224 199 0
-97 34 -39 0
-69 -175 -217 0
-171 -60 -119 0
238 -134 120 0
46 -79 -86 0
-137 -66 -26 0
-223 -221 -220 0
-98 -24 -192 0
235 71 -2 0
3 164 -49 0
23 -206 49 0
-80 -1 -156 0
-157 -105 87 0
67 236 127 0
31 120 91 0
16 -48 -150 0
-144 16 -39 0
-220 -208 17 0
-118 68 222 0
-215 -111 -99 0
-137 -41 184 0
106 109 -184 0
156 126 -62 0
-50 -150 -78 0
-85 -209 -92 0
-119 -87 101 0
158 213 40 0
-90 56 85 0
-36 -122 156 0
140 -77 179 0
183 -9 -102 0
192 -191 -130 0
-41 -230 198 0
35 47 -153 0
-209 95 -114 0
91 213 74 0
227 -184 -25 0
160 204 -84 0
-92 122 -20 0
141 -173 -46 0
-201 -204 45 0
-69 83 86 0
-120 -55 -185 0
-148 42 -25 0
183 186 197 0
154 -233 -55 0
21 227 -12 0
-31 -12 8 0
235 -99 164 0
-87 12 -99 0
57 -29 165 0
-220 -57 185 0
93 120 -192 0
-19 -120 -99 0
143 168 -95 0
137 -20 18 0
-12 30 -218 0
139 -126 -6 0
-29 -232 71 0
-65 -153 95 0
94 175 177 0
57 -187 218 0
108 113 13 0
-85 -154 -16 0
232 -209 -31 0
-27 81 161 0
209 59 -16 0
-119 -12 116 0
116 68 177 0
61 -84 30 0
174 -186 -126 0
-184 203 189 0
-41 -218 143 0
42 -23 188 0
74 221 -180 0
-20 7 187 0
-37 -63 206 0
-22 -184 28 0
80 216 -187 0
-203 165 -123 0
13 -220 -234 0
237 -8 49 0
209 -97 -137 0
36 81 -86 0
234 214 187 0
194 97 184 0
234 -71 182 0
169 94 29 0
-104 -175 231 0
229 -164 186 0
-207 82 -16 0
138 208 -113 0
76 -31 99 0
22 -179 94 0
213 19 -78 0
-222 6 179 0
63 169 44 0
-144 88 18 0
-36 -227 -93 0
152 174 -138 0
192 -38 150 0
198 -182 -209 0
207 -105 -170 0
-123 63 217 0
-121 -115 -233 0
-36 229 217 0
71 -94 173 0
-202 -128 -213 0
45 57 167 0
173 106 -118 0
24 -3 123 0
133 78 75 0
115 143 -228 0
-75 127 50 0
74 123 -172 0
-206 208 -135 0
-87 94 42 0
49 34 1 0
-137 -107 127 0
-115 148 -29 0
-75 181 -48 0
221 125 -32 0
187 -109 -55 0
-33 -83 61 0
-149 -127 -38 0
230 111 123 0
201 164 77 0
41 39 168 0
-234 -30 79 0
201 215 -232 0
-201 -202 103 0
-129 159 -36 0
-25 -189 -173 0
103 -182 -146 0
-177 129 -195 0
107 -66 -195 0
86 102 83 0
2 21 205 0
-165 -204 -146 0
97 233 -86 0
-149 -162 -64 0
178 71 -16 0
93 63 185 0
51 -120 45 0
215 67 210 0
-27 167 -99 0
132 -3 -142 0
-28 -227 39 0
-199 84 103 0
-67 65 -90 0
196 -34 197 0
175 71 -238 0
-29 159 -165 0
173 -70 -179 0
190 39 -188 0
-118 -131 -176 0
37 -18 86 0
-96 199 -34 0
-125 190 139 0
-159 -112 163 0
237 111 -16 0
-227 16 -71 0
13 -210 121 0
-67 189 162 0
160 -52 154 0
200 -36 13 0
68 -129 46 0
-237 180 155 0
-83 -57 -187 0
195 -67 -207 0
51 139 16 0
206 -198 17 0
107 98 -38 0
120 66 -81 0
24 -217 9 0
165 -48 -17 0
174 -227 -157 0
-59 184 168 0
179 79 104 0
229 77 71 0
137 52 -219 0
-160 -151 159 0
-16 -222 130 0
-9 -225 61 0
54 -77 198 0
-207 224 147 0
195 42 225 0
14 -180 163 0
173 -86 221 0
75 -181 -95 0
-73 39 -67 0
-95 -103 -46 0
135 -26 -148 0
-76 112 -163 0
194 -158 138 0
-176 -15 12 0
-47 -33 -40 0
-52 -21 -229 0
100 156 232 0
-195 -50 -210 0
165 163 63 0
-166 89 98 0
-34 16 49 0
129 186 154 0
115 38 -45 0
234 -143 -139 0
73 -171 -11 0
-166 -154 -82 0
-22 -38 56 0
-67 -204 65 0
109 46 186 0
-94 78 178 0
-214 -50 35 0
80 -172 -198 0
73 88 145 0
186 -47 -17 0
-132 66 -207 0
137 75 -226 0
128 17 -172 0
219 142 -77 0
184 49 -127 0
-61 50 152 0
23 179 61 0
106 -135 221 0
144 -128 55 0
-178 -102 176 0
-219 205 -193 0
-189 -118 -192 0
179 -120 -66 0
110 174 128 0
229 76 168 0
-217 137 -165 0
33 -158 -70 0
-135 -133 221 0
-231 -132 146 0
-113 -89 136 0
76 -37 30 0
77 -148 -112 0
-211 120 -57 0
-90 -203 -52 0
-96 15 20 0
-187 -63 101 0
115 47 -127 0
189 190 -50 0
62 -238 -91 0
52 233 13 0
-148 91 -157 0
188 -85 101 0
164 238 -67 0
-98 -81 -19 0
182 -35 -99 0
-6 179 -199 0
-106 -233 -128 0
-217 126 76 0
-176 168 6 0
-39 101 -26 0
-7 -26 -232 0
196 -139 -5 0
40 -111 138 0
181 -85 137 0
-228 -200 207 0
-119 189 153 0
-81 -156 -206 0
125 100 66 0
92 -68 -131 0
148 -96 -84 0
-229 53 -161 0
117 -150 -18 0
95 -226 115 0
-156 120 10 0
75 78 65 0
115 194 -134 0
-151 -65 -165 0
-233 -27 -109 0
145 68 18 0
102 -220 234 0
165 -109 -24 0
79 213 200 0
-35 -190 -193 0
203 -112 158 0
-230 216 194 0
3 67 167 0
37 227 -81 0
-3 -70 -15 0
70 -9 -195 0
-131 229 106 0
128 -116 234 0
-127 56 -96 0
174 233 -80 0
-17 237 189 0
14 -108 130 0
222 226 -41 0
-6 166 -27 0
-200 238 63 0
60 176 -217 0
-107 232 -162 0
-42 203 -226 0
182 136 -159 0
-225 -167 -237 0
-225 -65 145 0
155 -178 -9 0
165 -95 -36 0
-220 -162 87 0
166 124 -56 0
8 206 92 0
-171 -122 -117 0
-74 198 209 0
76 -205 -82 0
-238 1 216 0
-147 -20 -227 0
6 -176 111 0
-113 63 177 0
-208 -36 -238 0
166 203 -171 0
-179 23 228 0
54 -223 180 0
-123 -75 -40 0
-19 214 172 0
-1 -204 119 0
-210 -50 89 0
-182 232 28 0
-181 193 178 0
-119 -215 210 0
-214 -149 80 0
-77 207 103 0
109 -141 223 0
-196 81 149 0
141 -167 -237 0
-147 -95 -125 0
11 -22 -83 0
-86 4 93 0
61 -7 19 0
-18 -200 -52 0
91 10 -35 0
56 -198 101 0
-56 -122 138 0
25 -1 -26 0
-165 69 -123 0
-186 -159 231 0
44 97 48 0
-101 -117 -92 0
46 -124 13 0
-77 -222 132 0
193 -166 13 0
-111 100 -93 0
-193 26 46 0
-69 60 -108 0
-138 -34 3 0
2 -34 -40 0
-49 177 222 0
113 -92 -226 0
-87 -131 73 0
-215 173 -73 0
-198 139 133 0
35 -151 211 0
-235 1 63 0
70 52 227 0
131 -24 -61 0
198 213 15 0
-152 46 -148 0
-141 -224 -15 0
14 127 200 0
161 -62 153 0
-52 -214 80 0
93 -183 216 0
-6 189 -200 0
185 -114 108 0
-159 89 -130 0
109 160 12 0
191 9 -169 0
70 48 44 0
-45 99 -167 0
-111 17 -50 0
-201 -123 78 0
161 9 203 0
-102 111 122 0
113 139 -198 0
-199 86 179 0
-84 -170 81 0
179 -26 160 0
223 25 105 0
195 -16 46 0
-116 106 99 0
227 -120 12 0
-169 144 14 0
-176 -92 -23 0
