p cnf 210 892
-204 -72 -33 0
-54 -187 -21 0
-43 -131 -100 0
128 -133 -119 0
124 -184 -127 0
203 150 167 0
61 -102 -56 0
96 -66 141 0
-133 91 -59 0
110 116 120 0
70 98 -7 0
-92 -22 -76 0
202 71 59 0
-52 86 -51 0
197 -175 71 0
-193 184 -190 0
-73 -89 -201 0
194 -168 -4 0
39 -102 59 0
-133 151 -202 0
88 203 -22 0
179 -107 54 0
36 -148 33 0
169 91 -87 0
-196 200 177 0
202 -9 36 0
-162 -205 155 0
98 53 101 0
-85 146 116 0
173 -142 46 0
-48 51 18 0
75 169 -135 0
44 -84 106 0
108 -123 -191 0
34 -53 80 0
-155 -148 -80 0
-71 52 -2 0
-155 -207 -64 0
118 119 -148 0
-117 -89 180 0
208 -45 -107 0
118 -99 169 0
12 -62 41 0
-18 179 186 0
-196 142 32 0
197 200 84 0
12 -119 -7 0
98 88 191 0
-65 30 -182 0
125 -119 -18 0
-113 -36 121 0
5 156 -26 0
-44 -20 172 0
-92 -46 -56 0
-114 -179 -13 0
184 169 27 0
2 13 198 0
62 52 24 0
50 -175 172 0
171 43 186 0
-84 -83 -144 0
102 110 31 0
4 103 168 0
17 -169 209 0
-56 106 -78 0
-183 -138 203 0
-25 -154 -84 0
198 -178 -35 0
82 171 -124 0
-115 98 -131 0
-4 -60 6 0
189 110 194 0
128 76 52 0
-186 154 114 0
165 -202 195 0
209 -74 193 0
63 -53 -139 0
-206 -176 179 0
-83 47 114 0
-50 -14 163 0
-45 -152 141 0
21 110 186 0
109 46 156 0
-163 52 -70 0
93 102 -97 0
189 -111 195 0
-196 -98 -110 0
-153 138 40 0
79 -117 73 0
35 -184 121 0
129 187 186 0
102 191 -96 0
-19 105 -10 0
42 50 -196 0
-185 -90 131 0
-15 -167 99 0
-9 -209 -93 0
-166 -38 67 0
-64 -155 149 0
-198 24 -165 0
-21 133 49 0
-178 -78 129 0
-79 -188 -106 0
-28 163 147 0
-192 54 102 0
126 -1 -25 0
168 74 188 0
35 -51 125 0
209 -55 -48 0
50 -67 105 0
163 43 21 0
88 8 -150 0
-3 16 -69 0
-11 25 -55 0
195 69 125 0
-95 -175 -88 0
-171 -103 -97 0
207 -26 -1 0
36 -7 -155 0
193 -209 -64 0
-122 132 -106 0
-209 -83 -5 0
189 -84 174 0
157 -204 -21 0
-122 -169 180 0
-50 -183 -37 0
184 -130 9 0
173 141 120 0
170 139 -62 0
180 -23 28 0
84 -99 -197 0
172 -32 -171 0
24 204 -178 0
154 -17 -165 0
-186 -98 -168 0
207 60 58 0
-88 -190 152 0
-95 -33 81 0
16 152 138 0
-198 -94 -205 0
155 152 -57 0
-81 -38 209 0
117 -38 -154 0
180 -9 -154 0
71 -181 147 0
-181 97 -16 0
54 -188 -208 0
-199 46 -125 0
41 6 141 0
90 -194 101 0
-179 50 180 0
-193 203 -149 0
78 118 -168 0
75 -38 -54 0
-3 93 -186 0
-38 97 110 0
-92 122 -46 0
-87 -152 112 0
9 31 -62 0
45 -168 -191 0
169 -23 200 0
162 168 114 0
-126 165 -172 0
-147 123 -71 0
-99 124 166 0
-84 -17 183 0
209 -180 -6 0
-136 -126 -17 0
-203 167 -32 0
-31 47 154 0
81 32 11 0
144 -66 -193 0
94 -140 44 0
-77 12 -133 0
-36 -148 -126 0
-91 -156 -138 0
12 61 -10 0
35 155 142 0
-160 109 -20 0
42 103 117 0
178 -37 138 0
163 179 -166 0
131 155 -42 0
-112 98 7 0
-137 29 -176 0
93 -86 200 0
-3 26 -97 0
-201 -32 -45 0
-207 -126 -25 0
142 70 156 0
193 -100 -47 0
-137 142 -153 0
-67 3 176 0
97 -146 -189 0
95 -182 -200 0
-47 -113 91 0
-110 -134 184 0
-23 -79 -105 0
-20 187 62 0
-191 -74 142 0
-109 174 131 0
-176 174 -137 0
191 -2 183 0
-190 170 136 0
-44 173 196 0
-35 132 91 0
-96 29 -87 0
197 31 75 0
189 -162 -146 0
-165 -132 -10 0
-15 92 2 0
2 90 185 0
-126 -51 22 0
-125 2 40 0
96 77 -94 0
-28 113 169 0
-112 -2 92 0
73 -11 -35 0
-42 -171 -51 0
-31 -108 -126 0
-84 193 -196 0
190 100 34 0
40 -89 129 0
-88 110 153 0
125 -22 -195 0
-48 -64 -72 0
64 -171 -110 0
-180 187 -129 0
162 163 39 0
50 38 -110 0
98 -105 135 0
87 110 123 0
29 69 94 0
82 13 -47 0
55 -74 121 0
65 126 -94 0
-175 142 -198 0
-93 -191 200 0
71 -54 150 0
191 -155 -31 0
-210 -49 50 0
140 159 -88 0
137 185 -40 0
-65 -195 144 0
184 31 -112 0
129 203 -6 0
75 -12 145 0
-209 -102 -127 0
-43 -113 193 0
156 70 53 0
-179 -3 -203 0
67 78 57 0
58 12 137 0
-72 35 -70 0
54 137 -30 0
-95 -84 22 0
35 -105 -157 0
-3 92 57 0
-5 -138 -169 0
-28 -185 191 0
-161 -163 155 0
-69 -53 149 0
-115 60 -187 0
24 -127 47 0
146 126 187 0
-46 210 101 0
-110 -63 117 0
-135 36 187 0
-99 -6 -29 0
-12 34 -64 0
-154 -4 203 0
-189 210 87 0
-195 145 114 0
-63 -15 140 0
12 -27 -140 0
37 1 58 0
-168 -74 -58 0
184 29 126 0
-73 92 -20 0
22 12 155 0
47 -174 109 0
-210 74 90 0
-95 -68 -208 0
39 200 168 0
-204 202 123 0
187 -72 38 0
99 91 -82 0
155 -204 -163 0
-63 -99 108 0
138 -59 -99 0
-199 -178 208 0
1 53 5 0
29 -16 -90 0
36 -76 -118 0
-108 63 54 0
179 181 -37 0
96 -14 180 0
153 41 8 0
4 -146 209 0
-36 192 136 0
-87 114 201 0
-16 165 9 0
-102 109 -175 0
67 147 -129 0
70 -24 -134 0
103 159 -15 0
-144 155 20 0
165 -104 -98 0
50 70 -28 0
86 -8 62 0
-153 3 194 0
9 -62 69 0
203 124 12 0
-92 -193 73 0
-101 -186 92 0
105 -190 129 0
151 -204 98 0
42 -39 175 0
-184 -60 -56 0
-42 -129 -133 0
-197 88 115 0
-111 11 183 0
-157 -156 -20 0
25 -207 -4 0
205 201 23 0
76 42 18 0
46 -182 -198 0
-196 -114 -167 0
-125 11 -94 0
175 -34 -113 0
96 22 -175 0
-175 11 -159 0
180 144 3 0
146 -103 -19 0
-90 -120 165 0
-47 -188 -28 0
52 103 -85 0
55 180 190 0
-40 121 38 0
154 -199 -98 0
122 55 -14 0
-109 70 65 0
-104 21 77 0
55 172 -67 0
110 88 -193 0
-124 122 -138 0
91 178 -147 0
-153 -51 20 0
-171 -188 191 0
-118 38 -128 0
-105 -68 -134 0
-33 -163 116 0
-191 -49 -108 0
-56 -90 -54 0
4 95 209 0
210 -32 180 0
-91 -139 110 0
46 -118 110 0
-112 -98 73 0
-73 -180 159 0
23 207 -27 0
-27 -128 192 0
-114 -129 -149 0
55 58 199 0
-121 -32 90 0
-166 181 201 0
58 -130 73 0
204 -107 173 0
-4 -7 -40 0
190 -154 -82 0
62 -143 -101 0
206 -148 -110 0
-45 104 82 0
206 -33 130 0
-196 161 67 0
24 -7 112 0
-159 182 140 0
-191 -188 -34 0
-48 62 -168 0
-63 186 200 0
-14 -71 -22 0
149 -27 29 0
73 68 47 0
54 101 26 0
-161 20 54 0
116 207 42 0
-146 162 156 0
-89 124 -158 0
-66 -32 -50 0
-195 40 56 0
84 -36 57 0
-71 124 -52 0
-76 120 -191 0
50 -65 -45 0
-101 -27 150 0
53 185 -125 0
-70 -209 82 0
-146 -91 96 0
-9 131 -65 0
166 136 -91 0
110 203 -48 0
96 38 -200 0
184 -85 -55 0
144 17 99 0
-144 -72 -184 0
20 -147 166 0
-82 51 -13 0
108 -31 -32 0
61 -148 -6 0
2 -119 73 0
137 136 11 0
206 107 186 0
21 -143 199 0
-179 -117 127 0
96 159 27 0
-27 83 177 0
-186 -208 95 0
-177 14 67 0
78 -20 -68 0
-70 -179 44 0
-82 -38 -193 0
164 -115 -172 0
170 -126 72 0
-68 197 -76 0
-63 169 166 0
127 16 -55 0
49 -125 -27 0
-132 -81 -195 0
130 28 -34 0
-159 132 52 0
-43 -176 79 0
119 28 191 0
-69 8 122 0
141 22 -91 0
131 86 14 0
98 188 109 0
71 136 -156 0
166 64 29 0
-69 62 -17 0
180 184 -104 0
178 -69 127 0
74 181 153 0
-180 -160 -123 0
44 81 -175 0
37 4 171 0
-68 -20 -44 0
122 150 1 0
-210 5 146 0
129 43 194 0
189 86 -116 0
170 125 65 0
-182 -86 -133 0
153 -124 -29 0
-38 106 57 0
-63 148 190 0
-23 -50 -97 0
-174 -140 116 0
174 90 -85 0
-80 -49 -11 0
32 -111 -204 0
74 -29 3 0
-39 -134 75 0
74 17 205 0
152 32 14 0
1 -13 -65 0
-129 -171 -197 0
37 -188 51 0
9 -122 91 0
-103 -26 67 0
-112 174 -83 0
-65 35 107 0
-146 161 -119 0
-112 -25 -36 0
176 183 92 0
-106 119 -8 0
-23 194 36 0
-132 -96 -33 0
14 -194 101 0
-196 133 118 0
-167 -28 -86 0
177 -85 -16 0
184 14 -180 0
-127 -35 58 0
-161 80 185 0
177 52 -30 0
134 25 -64 0
-114 101 15 0
-48 -210 -61 0
-175 113 -169 0
-48 37 -210 0
180 140 -52 0
-151 127 -95 0
-28 119 107 0
31 145 -100 0
169 -159 -114 0
120 -186 118 0
-129 -54 -90 0
45 -168 39 0
184 -202 36 0
101 -18 -166 0
-47 -148 -182 0
-34 -179 -83 0
104 -18 12 0
-171 28 -128 0
-198 207 -188 0
-187 -99 194 0
-65 30 -10 0
-156 162 -8 0
-97 35 164 0
113 -174 74 0
136 -208 -203 0
172 25 53 0
-199 105 146 0
187 -165 -136 0
122 -129 -91 0
206 18 113 0
-21 33 201 0
14 154 -139 0
65 -100 181 0
-74 -20 -137 0
-129 -80 -103 0
-150 121 68 0
52 86 -196 0
-85 194 170 0
-207 -145 157 0
-19 -107 -154 0
-123 34 70 0
58 167 -90 0
59 -6 15 0
-156 98 175 0
-100 197 97 0
36 -30 -113 0
91 50 88 0
151 -3 -59 0
-138 146 -12 0
209 15 20 0
-81 90 155 0
-156 -102 123 0
-140 -53 -127 0
57 114 -183 0
-168 63 -135 0
-27 -14 -89 0
-72 -21 -53 0
79 190 -142 0
-37 -10 61 0
-30 6 -128 0
77 -22 16 0
98 99 114 0
-111 137 -14 0
-7 -156 -194 0
208 193 -152 0
-160 -112 -110 0
207 -28 -142 0
-137 -119 -109 0
-42 -98 120 0
-4 72 -205 0
198 139 -76 0
93 -69 -169 0
-4 32 79 0
46 114 119 0
-92 123 164 0
-21 -71 157 0
67 -197 202 0
-162 -45 38 0
-168 -10 -48 0
11 -142 -184 0
-66 -5 -174 0
12 154 61 0
131 -20 -61 0
-175 -107 19 0
84 -156 -202 0
-96 121 76 0
39 152 7 0
-184 -200 190 0
56 -97 150 0
-167 -21 -20 0
-148 -162 141 0
-136 -205 -14 0
-82 69 50 0
-63 205 197 0
30 -178 62 0
-21 -91 -144 0
-155 59 -115 0
-33 138 -63 0
-36 156 67 0
-105 -108 -130 0
-198 51 47 0
-68 196 142 0
-9 -111 7 0
136 100 -109 0
183 -76 31 0
-156 158 -28 0
-91 -115 105 0
194 123 -180 0
210 131 -22 0
173 167 -117 0
151 72 198 0
-145 -133 135 0
-83 -99 82 0
189 188 -54 0
81 26 89 0
113 -58 -44 0
-193 28 60 0
131 -194 -44 0
139 138 -205 0
-95 -53 -73 0
134 33 -117 0
31 114 111 0
72 188 172 0
204 57 187 0
-117 -162 -189 0
81 -10 -111 0
-49 -143 -170 0
161 3 -63 0
173 51 68 0
128 -73 -34 0
186 192 -55 0
54 -182 -46 0
-162 150 -61 0
-47 -77 60 0
162 101 154 0
29 -194 196 0
170 -109 -30 0
-89 -179 102 0
207 126 154 0
130 -56 201 0
173 82 106 0
-14 69 -125 0
79 -115 -105 0
-200 -161 29 0
-155 139 6 0
-200 -181 -86 0
168 -13 -133 0
138 -102 -184 0
-85 106 56 0
6 194 135 0
41 -73 -78 0
9 -70 -192 0
-34 -210 190 0
-130 185 181 0
139 -155 39 0
156 -80 201 0
71 -118 -52 0
97 -75 -110 0
-124 73 180 0
-128 -187 -101 0
-116 58 148 0
95 123 145 0
-162 22 -25 0
152 -64 22 0
186 -146 195 0
-80 190 -87 0
154 105 -2 0
126 -140 128 0
-182 -124 -132 0
27 109 180 0
134 192 -32 0
10 -109 127 0
192 141 108 0
76 185 -174 0
145 -167 43 0
-158 183 96 0
-85 -192 185 0
184 122 3 0
2 -80 -180 0
-85 -25 16 0
163 144 58 0
-73 110 -150 0
-66 144 -139 0
27 188 56 0
-205 134 -151 0
-152 -155 -71 0
122 54 44 0
206 158 38 0
-20 14 -36 0
-84 78 129 0
199 99 -181 0
-136 -21 -155 0
-72 -183 37 0
202 -65 -176 0
-46 -7 94 0
-109 -55 -158 0
-98 -96 46 0
93 135 50 0
-95 -65 129 0
71 -165 -123 0
-71 -161 -15 0
121 156 -162 0
-166 193 140 0
-183 -40 181 0
108 -31 15 0
-140 -72 50 0
173 -82 -182 0
-94 133 -4 0
172 -16 17 0
69 22 45 0
-130 -105 -45 0
80 71 -144 0
-179 23 -145 0
47 -187 -23 0
197 -44 202 0
-186 -64 -79 0
-49 192 194 0
74 46 72 0
49 70 -52 0
68 24 -126 0
-134 116 -162 0
-150 99 -40 0
-89 166 208 0
-129 142 -191 0
67 -56 -120 0
162 -48 122 0
-97 169 151 0
92 3 -41 0
26 48 92 0
-6 -113 -208 0
-188 103 122 0
87 124 -174 0
60 196 130 0
148 -103 -152 0
153 -179 -135 0
-34 170 86 0
-203 197 37 0
1 169 38 0
48 -61 53 0
143 199 96 0
-141 -176 -101 0
-119 181 63 0
-196 -35 -103 0
187 109 153 0
190 -151 -7 0
-95 93 -88 0
102 20 166 0
78 -112 24 0
-73 80 100 0
108 -46 42 0
-207 22 -89 0
206 207 -4 0
176 -117 3 0
198 -14 78 0
-207 -206 -116 0
-137 -94 -29 0
99 173 -21 0
-152 -67 -51 0
112 13 119 0
-94 13 154 0
76 197 210 0
107 -5 -115 0
-92 188 10 0
-137 -25 33 0
-71 89 -118 0
188 135 146 0
-38 -156 186 0
-186 -21 87 0
6 -48 -192 0
111 30 204 0
132 -139 204 0
-122 56 -195 0
-48 -71 -129 0
174 73 -70 0
169 -34 -71 0
82 -25 57 0
-157 -74 -187 0
-163 153 -85 0
-88 82 -89 0
-128 -54 137 0
-9 -170 -147 0
-89 -22 54 0
-193 81 -116 0
-43 160 -91 0
-193 -73 143 0
-138 -34 97 0
-56 55 29 0
-200 189 103 0
-154 -72 -82 0
-176 -163 -196 0
-58 104 -127 0
41 -46 103 0
-119 168 -45 0
-108 -106 49 0
-159 -129 -21 0
84 -157 -64 0
-95 -6 191 0
131 -50 42 0
121 183 -52 0
53 -148 119 0
-62 -204 46 0
155 -85 41 0
-192 -9 -175 0
99 19 -201 0
-31 -184 -199 0
113 -124 -186 0
186 -197 -11 0
-167 113 -110 0
-195 -149 193 0
-169 -87 37 0
-25 85 -165 0
193 63 194 0
202 116 180 0
36 38 134 0
93 -183 -75 0
79 122 -183 0
-178 -33 38 0
-59 8 55 0
-94 -185 131 0
-159 -44 -89 0
-134 96 97 0
135 124 -45 0
17 88 58 0
200 187 203 0
-146 -164 -4 0
135 -59 190 0
26 -85 -130 0
-190 138 -21 0
-64 63 -66 0
-63 59 -177 0
69 142 -72 0
17 34 134 0
195 -149 -123 0
82 203 163 0
-122 51 26 0
146 -3 -149 0
114 -200 -165 0
-117 -1 65 0
46 85 -130 0
68 -137 -64 0
-161 -113 29 0
82 131 -121 0
-173 78 -25 0
-138 -47 50 0
-129 79 -82 0
-157 54 147 0
-102 -202 44 0
-133 122 -168 0
-59 -68 121 0
79 -86 187 0
-109 145 -101 0
-15 105 91 0
-71 5 -210 0
76 -96 7 0
-144 -190 52 0
71 28 20 0
-185 -152 -121 0
100 177 -181 0
97 16 -26 0
113 -73 29 0
-199 -188 -106 0
147 52 -144 0
-196 -170 -67 0
-36 -198 -18 0
-93 198 115 0
59 -118 -93 0
-66 155 -192 0
110 102 -207 0
-132 -96 -5 0
-205 84 203 0
-18 -189 -20 0
-137 -41 -205 0
-120 -157 -167 0
111 -210 -71 0
39 -167 85 0
-136 -200 -178 0
103 -148 76 0
58 -83 -110 0
197 -84 -137 0
-148 91 -184 0
53 -79 -47 0
-11 -200 33 0
81 59 169 0
-70 60 -56 0
113 -32 -97 0
54 98 13 0
98 -152 -209 0
149 -186 133 0
126 -190 155 0
-54 24 -205 0
117 5 -2 0
-26 -91 93 0
-167 77 -59 0
-100 121 -5 0
-83 12 37 0
-133 -40 36 0
-206 54 190 0
41 -108 45 0
208 -172 -47 0
8 -128 -53 0
68 160 83 0
-121 -9 189 0
-97 196 154 0
90 58 -24 0
119 -107 -138 0
1 -80 122 0
