p cnf 180 765
45 -33 -27 0
-130 -99 -108 0
-71 102 88 0
-106 -155 -180 0
-141 81 -142 0
-75 176 -89 0
-46 129 139 0
-91 -144 -123 0
-173 137 74 0
28 -7 98 0
42 -74 -175 0
76 -53 139 0
-173 -144 58 0
-179 -74 178 0
176 -81 142 0
-114 -58 -163 0
-140 -155 51 0
46 175 -20 0
97 11 110 0
66 -2 85 0
-83 -153 -14 0
-78 126 -147 0
-135 -57 48 0
140 138 104 0
85 -93 -76 0
144 167 3 0
165 158 -160 0
98 -30 99 0
-133 96 132 0
-167 -50 83 0
-138 137 -2 0
-55 176 -109 0
-112 166 19 0
85 10 23 0
-19 148 59 0
104 -111 -81 0
-165 -159 -17 0
19 -92 129 0
23 -73 113 0
41 137 -57 0
140 -76 -163 0
-166 -96 3 0
2 -147 153 0
54 -89 -55 0
-42 48 57 0
-172 -146 -14 0
119 -166 141 0
-51 149 -125 0
-61 -26 73 0
-116 -85 158 0
-146 94 81 0
57 165 -112 0
85 -123 119 0
-28 -45 -166 0
36 -138 51 0
-20 -5 -130 0
-152 -55 -10 0
121 168 -39 0
-75 35 119 0
-3 -170 -62 0
43 132 -36 0
-169 38 -124 0
60 17 68 0
-93 -100 121 0
-167 -83 -27 0
-68 149 140 0
-151 168 -20 0
-133 104 -91 0
-155 2 129 0
132 165 72 0
31 170 59 0
-173 -123 54 0
-63 12 -33 0
11 147 38 0
-104 -154 -145 0
73 -22 -56 0
-44 -57 -106 0
-47 160 -169 0
117 153 152 0
-5 -52 134 0
39 -156 -25 0
137 -129 -31 0
-139 -1 174 0
12 -179 136 0
-98 -90 -151 0
148 26 109 0
-22 73 154 0
2 148 -134 0
177 81 -105 0
65 67 138 0
175 -102 53 0
95 -144 -143 0
102 36 -169 0
-42 -26 -55 0
-158 179 -176 0
2 -24 38 0
68 57 95 0
-103 -158 -168 0
45 164 -127 0
133 -74 -50 0
-60 158 -44 0
-41 23 71 0
151 -52 -133 0
-141 73 -144 0
-71 58 156 0
2 67 45 0
-76 -88 -30 0
148 65 178 0
-63 -87 -118 0
124 -30 -67 0
-174 180 59 0
-138 3 180 0
-173 88 20 0
56 -147 -69 0
49 128 52 0
-59 52 -64 0
-31 21 174 0
139 11 -124 0
148 -71 -126 0
102 -57 148 0
139 -9 -129 0
-118 31 179 0
-173 54 -98 0
67 48 -141 0
88 94 -48 0
96 94 103 0
-148 -176 -59 0
143 -111 -98 0
122 3 -46 0
-162 -133 137 0
144 -146 13 0
66 -122 162 0
-93 144 143 0
-32 90 -174 0
-167 138 45 0
-131 125 115 0
-162 -38 43 0
-157 147 104 0
-59 -81 -82 0
-102 -70 -114 0
134 -116 106 0
-61 -170 65 0
43 -102 27 0
-14 -7 102 0
-159 -40 22 0
-64 73 -114 0
8 -9 -170 0
-120 139 -70 0
-139 -46 -152 0
-145 -112 -135 0
-124 139 59 0
67 -40 -78 0
35 89 -74 0
-123 -77 -3 0
2 -141 96 0
64 42 166 0
-109 -161 -62 0
178 -176 -70 0
106 49 -18 0
-159 116 70 0
39 -13 137 0
33 113 3 0
-88 108 80 0
179 -9 85 0
-69 101 -19 0
65 -98 4 0
114 -64 9 0
171 -54 -122 0
-41 -162 11 0
124 -164 -77 0
-56 29 61 0
71 150 -31 0
-149 177 -122 0
64 -41 -128 0
-161 -16 -92 0
33 -125 -60 0
89 113 -50 0
-65 -11 -125 0
126 49 -146 0
71 -154 142 0
68 -139 -94 0
-48 -5 159 0
-17 169 -138 0
142 40 157 0
25 -134 169 0
9 52 -28 0
-100 -169 126 0
-94 57 -156 0
168 -126 21 0
-107 95 15 0
-19 -78 20 0
60 -137 99 0
-161 46 143 0
-164 -148 92 0
-27 -43 -47 0
-137 -154 -114 0
-84 96 -106 0
-156 62 -145 0
66 93 -116 0
-73 -153 5 0
-77 57 -55 0
-177 -71 -142 0
25 10 118 0
150 64 -60 0
-146 -56 20 0
-177 180 -148 0
10 148 -98 0
-90 112 -107 0
-168 -155 3 0
-135 11 -82 0
-57 -40 -13 0
153 148 -130 0
38 -34 87 0
103 68 -22 0
35 124 -144 0
144 158 -135 0
83 -176 148 0
90 -49 -83 0
-44 -90 -158 0
113 12 -60 0
22 -29 14 0
-74 4 88 0
-6 85 -54 0
-67 -141 -124 0
-172 -5 97 0
44 -16 73 0
120 -168 -3 0
169 -93 -28 0
-60 98 131 0
153 -137 23 0
-6 11 64 0
-41 5 89 0
-129 -71 -16 0
8 143 72 0
-36 -23 -98 0
176 59 -107 0
-155 85 115 0
-139 176 -52 0
-135 -35 111 0
145 -41 -82 0
-48 -82 -38 0
-106 -78 -114 0
71 39 -49 0
-157 -158 -69 0
60 -176 7 0
-129 155 -121 0
126 122 36 0
4 -70 106 0
-53 -17 -46 0
-126 -177 84 0
-11 156 -98 0
-147 -153 -138 0
134 -28 -116 0
63 -133 -138 0
133 162 -13 0
74 -119 43 0
-133 37 -119 0
-29 -47 150 0
106 83 -116 0
52 -117 -24 0
42 32 24 0
-135 99 -131 0
-12 -44 86 0
38 46 -14 0
115 -74 -161 0
1 160 65 0
2 -156 127 0
-105 114 -21 0
-72 -159 161 0
38 15 168 0
148 155 77 0
46 -42 -173 0
-147 -144 46 0
10 -24 -77 0
110 141 -17 0
71 85 135 0
-15 -28 -147 0
-124 -177 155 0
-156 -82 67 0
34 -158 145 0
-47 -157 60 0
-7 -120 161 0
158 107 -106 0
55 3 -164 0
-79 -77 130 0
-86 -88 102 0
-45 -50 85 0
122 10 166 0
-138 86 -119 0
-134 77 -145 0
54 -148 -176 0
-17 39 72 0
-137 43 147 0
79 81 -9 0
96 116 78 0
10 52 24 0
129 40 -49 0
-80 84 -37 0
133 174 34 0
134 30 -2 0
-23 86 -120 0
-80 -6 148 0
52 50 74 0
31 70 -39 0
144 132 27 0
37 73 -147 0
87 139 -114 0
13 28 99 0
-153 -152 -162 0
-80 -86 -51 0
120 -146 -34 0
-25 -117 80 0
-60 -58 -37 0
-101 47 -180 0
84 117 125 0
-119 -44 73 0
27 -104 -28 0
-137 119 103 0
41 124 -99 0
-111 -112 146 0
-170 -172 -20 0
30 -152 -153 0
46 79 -104 0
-98 84 127 0
-36 -149 -163 0
116 -137 75 0
-175 -82 77 0
-112 -89 -23 0
33 -76 16 0
-144 -92 29 0
-180 -152 101 0
-112 140 55 0
99 -93 -107 0
-35 3 -19 0
169 -112 35 0
-117 -179 155 0
109 142 116 0
-2 148 -128 0
106 -140 -148 0
95 -29 149 0
-135 -72 -120 0
-63 -121 162 0
163 139 149 0
-3 121 -117 0
108 91 -76 0
78 145 67 0
-14 -169 75 0
22 -33 130 0
-158 72 71 0
-45 152 39 0
180 -61 125 0
-22 38 153 0
-106 -99 61 0
-148 -89 14 0
43 119 -103 0
-137 60 98 0
136 -112 4 0
-81 136 -175 0
-91 -111 157 0
-69 26 -66 0
-62 -173 -151 0
47 81 141 0
106 26 135 0
73 -65 50 0
-153 -169 -56 0
31 -23 -155 0
-145 48 29 0
-20 164 117 0
171 83 -66 0
-98 100 -86 0
46 -113 -18 0
46 -166 126 0
-158 -165 28 0
-19 147 65 0
-168 -164 1 0
-180 -85 -101 0
126 -123 -112 0
18 -139 -58 0
-124 -32 146 0
-78 -103 15 0
-137 -88 21 0
52 46 142 0
-179 100 28 0
162 113 -49 0
152 -62 -126 0
-128 137 116 0
87 -11 -104 0
118 -174 -138 0
-10 37 -126 0
-12 63 -180 0
-79 -25 117 0
-28 -30 128 0
-52 -110 -87 0
-84 31 -176 0
55 12 152 0
107 44 179 0
149 -11 -35 0
41 5 -125 0
167 -152 -73 0
178 33 53 0
-62 -45 -157 0
-157 23 161 0
143 -61 50 0
93 -139 -130 0
71 14 -50 0
122 -128 46 0
94 73 -54 0
-117 -12 27 0
8 -125 -132 0
152 -149 -84 0
59 29 84 0
52 -97 57 0
-112 38 56 0
-35 -118 50 0
-33 9 178 0
120 118 -108 0
-155 -41 -164 0
142 -59 -23 0
-56 152 -122 0
-64 -84 -112 0
39 147 -2 0
-130 9 -109 0
26 -116 127 0
105 56 -34 0
5 -123 -172 0
150 7 -117 0
48 -95 -161 0
19 99 177 0
-70 -179 -157 0
-21 159 -86 0
173 94 -14 0
-94 45 -166 0
53 36 86 0
-149 -180 54 0
69 129 175 0
-116 125 -129 0
174 137 -75 0
-178 17 49 0
46 74 -20 0
-128 -39 53 0
175 139 -34 0
6 -75 49 0
134 166 -86 0
-84 -125 -152 0
118 -78 146 0
67 59 -124 0
38 91 -73 0
-138 -74 -47 0
171 40 42 0
33 113 -67 0
171 82 -89 0
-137 78 32 0
38 -118 -82 0
-130 85 166 0
-147 -171 -38 0
-87 -177 29 0
142 -30 79 0
92 -24 -84 0
57 -72 51 0
172 23 -132 0
131 15 -171 0
95 99 96 0
115 -144 -23 0
107 -114 -74 0
-107 36 151 0
-135 -86 17 0
-2 105 -164 0
146 36 -52 0
11 -78 150 0
7 -1 -40 0
-121 32 168 0
177 -166 63 0
-18 -154 -93 0
-161 -176 122 0
148 5 67 0
178 35 92 0
92 -13 75 0
-50 -161 47 0
-83 81 -176 0
-93 -25 137 0
-133 73 -96 0
42 27 56 0
-144 -158 -177 0
142 -180 30 0
34 -5 123 0
-114 153 -134 0
8 -31 -57 0
79 33 -54 0
-29 -20 5 0
-28 9 169 0
65 12 17 0
-32 155 -53 0
-8 -24 -38 0
-90 -91 -42 0
130 -146 18 0
56 -50 73 0
-26 55 -130 0
-48 113 173 0
-98 109 -55 0
81 32 -120 0
74 143 11 0
-117 -154 80 0
105 75 -110 0
122 -174 95 0
-27 -102 113 0
-102 103 -178 0
-44 17 -94 0
-104 -32 60 0
-149 -152 -70 0
-92 122 171 0
72 38 117 0
161 35 8 0
174 -7 46 0
-160 -25 20 0
-120 52 76 0
88 -139 -140 0
31 99 116 0
-9 -46 -143 0
43 -126 111 0
29 -146 -173 0
-121 -122 144 0
-127 152 -97 0
-83 16 8 0
150 7 161 0
92 106 90 0
-80 152 22 0
-87 44 -6 0
-109 146 -132 0
151 6 -82 0
-126 26 -177 0
-171 87 43 0
-128 -163 20 0
13 77 -147 0
-24 149 -25 0
136 -122 -110 0
78 -130 77 0
-103 -65 -160 0
-5 -161 133 0
-120 -69 -164 0
112 145 161 0
-62 -39 176 0
-17 163 53 0
-42 66 176 0
-50 8 63 0
-112 109 166 0
-8 67 -72 0
-125 6 -15 0
-17 -105 94 0
-36 -61 29 0
171 -149 135 0
-32 -81 -85 0
61 109 -56 0
-113 105 -66 0
-180 29 82 0
72 38 93 0
-166 -156 -9 0
177 172 -62 0
180 -93 -176 0
-100 -3 101 0
-61 77 54 0
-82 165 105 0
-126 121 106 0
26 42 179 0
-141 -84 -117 0
-48 162 114 0
-161 79 81 0
-167 -34 153 0
123 -35 67 0
73 51 -22 0
-147 -58 -6 0
-161 59 -23 0
-44 -13 103 0
95 -44 146 0
117 -173 127 0
69 74 127 0
56 73 -174 0
8 75 68 0
150 176 166 0
-83 -178 -102 0
153 66 19 0
-61 -121 -91 0
154 -12 2 0
102 -172 95 0
-46 -67 -44 0
-34 23 82 0
81 -12 33 0
-93 111 -73 0
68 133 -81 0
-126 -39 -143 0
14 49 39 0
42 -120 112 0
114 92 -144 0
38 -32 90 0
-44 -131 70 0
2 -135 147 0
-128 174 -25 0
175 -32 101 0
83 -40 -8 0
-117 161 -69 0
168 -160 -116 0
-146 -34 55 0
-15 19 141 0
46 -62 103 0
-104 -73 166 0
-126 -111 80 0
25 95 132 0
69 -145 -154 0
-158 48 -112 0
-119 -174 -58 0
-135 162 166 0
-123 -77 39 0
64 134 110 0
-12 132 28 0
146 65 -91 0
30 170 119 0
22 -107 -77 0
116 -160 -68 0
-55 -48 -21 0
28 112 137 0
-168 -123 -118 0
-155 -125 78 0
-173 177 102 0
-49 29 5 0
-124 167 -38 0
138 49 23 0
-6 -30 43 0
-125 -121 6 0
146 101 -14 0
-111 -107 -127 0
75 -10 -125 0
-174 -125 60 0
81 -142 -17 0
-30 127 -160 0
-6 42 74 0
-130 57 -151 0
-169 -120 34 0
-107 -173 -168 0
42 -160 -54 0
34 45 -52 0
127 78 61 0
67 -92 -174 0
9 -17 87 0
-58 -125 -67 0
-143 -69 -39 0
-27 -13 -113 0
-28 157 27 0
-162 31 53 0
-114 130 -128 0
-86 36 32 0
2 -63 122 0
-96 107 -93 0
136 108 -59 0
118 133 175 0
3 133 -18 0
43 112 -16 0
-39 -148 -15 0
134 -76 -108 0
78 81 -89 0
38 180 -104 0
-159 -167 -114 0
104 -51 78 0
33 134 -139 0
134 88 -163 0
-152 67 62 0
-130 29 -16 0
-32 13 -167 0
-2 -117 -87 0
-145 -161 171 0
-73 -171 -147 0
-64 27 -84 0
-117 -26 38 0
16 109 34 0
-135 -104 -151 0
150 128 -163 0
126 107 -42 0
34 132 136 0
-41 144 -95 0
-29 31 95 0
96 79 78 0
-151 108 13 0
47 126 -1 0
107 124 147 0
97 122 -156 0
116 -171 115 0
160 -171 105 0
-12 -172 -114 0
-7 -147 -162 0
32 -165 -144 0
14 146 -134 0
31 169 -137 0
63 -149 114 0
-151 12 126 0
107 7 136 0
26 139 -44 0
-40 79 -105 0
47 7 15 0
-83 -67 97 0
62 -153 -151 0
30 -69 16 0
8 -105 163 0
151 -173 -26 0
78 -146 -105 0
-37 -96 -139 0
109 -143 -116 0
-159 75 -168 0
124 -70 -154 0
-162 55 150 0
137 145 18 0
-36 143 -72 0
-82 -175 -88 0
-70 63 170 0
-154 85 -5 0
-156 -122 2 0
-179 -126 -101 0
-20 -138 8 0
-32 91 97 0
179 -3 32 0
-57 -6 72 0
-158 161 -78 0
93 -10 -72 0
2 -51 -164 0
127 -44 -142 0
155 145 45 0
-67 -146 59 0
-174 -6 -178 0
-117 -1 110 0
83 -111 105 0
-93 133 12 0
108 137 115 0
-147 7 58 0
64 51 -43 0
-8 -123 -111 0
86 65 64 0
-14 -86 -134 0
-159 -113 25 0
16 -9 97 0
33 -16 114 0
-27 174 15 0
25 -159 -106 0
3 117 -99 0
-26 -87 167 0
85 151 -50 0
152 -50 147 0
124 159 114 0
33 -80 -150 0
-80 150 139 0
-88 -75 -95 0
-38 -15 -61 0
-109 -89 51 0
-18 -88 -49 0
-154 -178 85 0
77 108 -85 0
-11 -127 -57 0
120 -160 -55 0
85 -97 53 0
3 19 92 0
-50 162 -150 0
51 73 45 0
142 63 46 0
26 -6 -174 0
87 54 79 0
-44 -135 160 0
37 34 49 0
154 110 -163 0
-49 138 76 0
