p cnf 246 1045
160 -66 -190 0
167 237 -136 0
167 14 -231 0
-98 140 27 0
-72 47 -235 0
-19 36 159 0
-224 -2 54 0
-43 -75 -81 0
-53 47 -241 0
99 77 6 0
-17 -85 -78 0
182 -87 17 0
81 48 124 0
-241 -6 244 0
202 -108 94 0
-182 47 -160 0
238 -210 -242 0
65 -199 -119 0
221 -76 10 0
-132 157 -93 0
-140 24 -80 0
-161 -39 185 0
-13 21 154 0
153 -89 212 0
-235 164 9 0
188 -145 244 0
44 -112 96 0
-117 -237 159 0
125 177 187 0
231 -38 -29 0
-161 240 128 0
-132 201 -141 0
-199 92 178 0
144 181 -172 0
-177 184 76 0
-219 3 -122 0
-119 -74 210 0
-71 -165 89 0
-216 45 223 0
-86 133 -37 0
240 219 -123 0
-107 -44 -158 0
-108 -78 160 0
-8 -51 41 0
-195 176 47 0
-58 43 -14 0
124 50 141 0
157 -19 152 0
90 104 244 0
-213 -141 96 0
76 -140 -132 0
210 -34 -108 0
-120 -37 -41 0
35 -156 24 0
-28 -84 145 0
225 229 145 0
75 -123 -182 0
-153 67 190 0
82 242 79 0
-32 169 160 0
35 -212 101 0
240 122 -201 0
185 -74 -76 0
-222 155 -226 0
-77 -73 -137 0
7 -119 -90 0
-10 -1 65 0
176 -140 49 0
-148 -177 -182 0
216 -99 122 0
-76 120 213 0
200 -111 -150 0
-37 -43 -123 0
-138 -40 109 0
59 69 -210 0
-86 -185 -110 0
13 -32 -216 0
29 183 -230 0
39 -47 157 0
55 12 143 0
15 147 -148 0
3 -111 24 0
-241 168 96 0
-146 -162 -174 0
159 57 -68 0
-73 -133 35 0
-100 -46 34 0
-171 -10 24 0
100 225 -119 0
8 -139 -186 0
110 175 -204 0
171 -126 211 0
214 -61 75 0
-99 97 35 0
162 111 -219 0
56 190 47 0
52 -51 -11 0
90 -1 -110 0
110 83 -120 0
19 -96 223 0
-66 -29 -72 0
9 -124 230 0
241 16 -177 0
-40 31 -202 0
187 42 9 0
-21 -159 -103 0
48 -120 -93 0
42 199 62 0
-156 111 186 0
200 175 -106 0
215 133 145 0
231 206 -126 0
165 13 128 0
-105 -115 -79 0
-50 46 -179 0
-22 238 -81 0
-42 154 20 0
139 -92 -125 0
-34 186 4 0
212 58 142 0
198 68 -210 0
121 63 -179 0
63 71 -16 0
204 74 226 0
-81 98 193 0
-241 195 -34 0
168 201 245 0
28 208 207 0
44 36 68 0
-139 196 190 0
34 212 -92 0
5 60 136 0
-4 42 -150 0
69 -136 156 0
241 112 204 0
59 119 -153 0
240 42 137 0
33 209 -218 0
9 -233 148 0
119 56 -52 0
-92 196 -193 0
-209 170 216 0
90 37 213 0
-102 -26 193 0
205 194 -83 0
24 205 -51 0
-151 159 -48 0
157 80 -132 0
-103 -116 -202 0
172 16 -138 0
-6 174 198 0
-23 -199 -92 0
106 -79 238 0
-10 -193 -23 0
-177 -206 -215 0
-124 133 -24 0
-140 -109 101 0
-193 -168 -136 0
-99 -83 -28 0
96 64 -228 0
-205 160 -20 0
-197 -48 -58 0
-164 225 140 0
136 153 232 0
228 85 48 0
143 155 -145 0
166 202 -177 0
-36 214 -133 0
-166 -99 -238 0
205 123 216 0
24 -86 -39 0
-113 -189 -83 0
-237 -141 -245 0
94 27 209 0
-118 -229 175 0
242 140 -120 0
96 34 176 0
-191 -19 126 0
-30 -208 123 0
88 98 -37 0
202 23 -148 0
17 133 111 0
171 -185 -19 0
-111 -47 139 0
-116 92 -34 0
93 -208 -5 0
223 133 -21 0
-114 -4 -121 0
-215 176 121 0
-200 -129 -112 0
159 163 -151 0
-106 208 -224 0
4 209 194 0
-49 -109 214 0
108 49 70 0
163 32 197 0
98 10 -230 0
-192 -213 127 0
61 -20 236 0
208 -110 22 0
199 -55 -39 0
143 -24 73 0
-95 233 -123 0
146 36 68 0
-61 124 -171 0
-108 60 130 0
206 129 62 0
6 143 77 0
-232 -95 -146 0
244 100 -97 0
20 166 -115 0
26 -237 -132 0
36 117 -90 0
146 117 11 0
37 96 -88 0
190 32 68 0
43 161 -203 0
-113 -235 -230 0
-231 190 91 0
-211 -157 127 0
-106 31 -185 0
138 243 -179 0
-24 11 -18 0
139 -185 -215 0
31 104 194 0
-225 -195 83 0
-40 168 -56 0
118 23 39 0
160 133 -167 0
44 -176 -129 0
-38 -112 -69 0
-56 143 -62 0
-214 81 76 0
217 -228 -133 0
-245 209 30 0
-223 -162 73 0
-140 -99 45 0
-105 220 85 0
87 106 223 0
-11 -242 -25 0
27 119 -107 0
139 -75 -167 0
243 20 120 0
158 -138 -25 0
112 30 -70 0
-11 -54 226 0
163 -47 -236 0
19 -36 79 0
-114 -142 235 0
43 191 -161 0
-155 26 -35 0
-197 27 114 0
23 185 -115 0
206 -179 124 0
-92 -179 14 0
-7 -87 148 0
-224 -134 236 0
74 35 -135 0
33 -75 168 0
125 -242 -41 0
-108 211 -215 0
-135 -130 -84 0
-41 -148 127 0
120 -215 96 0
31 189 -52 0
-171 213 -103 0
-59 166 71 0
-18 191 239 0
-189 -25 -96 0
201 176 -187 0
38 109 15 0
45 -118 228 0
-134 -20 -7 0
-120 -214 -159 0
-159 53 -6 0
17 -179 -88 0
45 57 102 0
187 -224 100 0
99 177 49 0
105 -246 7 0
-177 -221 -215 0
-235 -109 -204 0
-144 226 212 0
-84 -150 65 0
211 -137 -216 0
111 93 209 0
-39 -181 -109 0
-120 246 -213 0
21 -125 -39 0
95 -194 227 0
-236 85 156 0
144 113 211 0
-132 19 -199 0
153 81 25 0
-90 220 -197 0
-32 -238 -133 0
175 -163 22 0
114 -78 -39 0
-173 -133 -63 0
19 239 97 0
-242 -109 23 0
27 -119 84 0
-176 116 180 0
74 -80 -68 0
-132 -130 24 0
-169 -51 158 0
-17 113 83 0
155 241 152 0
79 -11 -146 0
18 237 21 0
60 9 111 0
-178 -131 -145 0
217 -10 -46 0
-23 29 -113 0
242 161 241 0
-68 -34 38 0
-72 47 -45 0
-81 66 -50 0
117 31 74 0
104 -63 -177 0
-231 30 200 0
-89 42 217 0
70 -122 -135 0
85 202 81 0
32 -195 50 0
231 -17 -163 0
-236 214 90 0
70 79 -17 0
215 -3 -197 0
-187 -192 188 0
171 147 25 0
-118 -38 31 0
62 -246 -158 0
-152 243 83 0
-56 219 216 0
3 -152 -150 0
23 -59 -61 0
73 -216 188 0
-156 -152 158 0
224 113 -162 0
-151 120 -205 0
-89 -146 122 0
-4 -144 43 0
-72 -215 121 0
-50 115 141 0
-238 216 -6 0
51 70 -184 0
21 164 91 0
155 -59 242 0
66 -18 123 0
-229 185 -123 0
102 -157 -154 0
85 129 -176 0
-174 -172 -42 0
-181 -237 -60 0
73 194 -59 0
46 -196 208 0
146 -62 -61 0
22 32 -199 0
3 221 -173 0
179 36 -246 0
-216 -110 -113 0
86 -202 -198 0
-194 -222 87 0
-127 218 -169 0
151 82 3 0
-238 65 -72 0
-114 -171 18 0
85 107 67 0
203 -39 -61 0
-91 196 -64 0
-65 31 137 0
202 222 27 0
239 -224 57 0
230 167 -109 0
-135 -184 101 0
79 -144 -120 0
94 142 222 0
134 -2 -117 0
-26 79 134 0
-27 -150 61 0
-50 173 122 0
-8 7 -31 0
120 87 144 0
54 59 219 0
-158 -228 149 0
-172 -228 120 0
-109 133 215 0
-176 17 199 0
230 -231 166 0
243 42 222 0
-19 119 -83 0
-187 -63 19 0
79 175 133 0
44 218 -58 0
-108 -106 -215 0
239 235 -8 0
-233 -190 110 0
-185 30 110 0
-145 -10 97 0
-106 86 72 0
-60 227 229 0
57 -23 164 0
-38 156 -85 0
122 -51 243 0
-165 -160 -231 0
-50 -28 -107 0
147 85 180 0
-172 -144 -92 0
30 -180 135 0
149 -165 -82 0
-182 42 -36 0
102 189 117 0
73 -169 -102 0
-68 201 20 0
105 166 159 0
225 108 -10 0
-148 -66 -32 0
-162 -141 50 0
34 232 -188 0
-153 192 60 0
-195 20 56 0
-192 -1 -26 0
-171 59 -149 0
78 29 59 0
167 -155 -217 0
105 162 -69 0
-107 44 92 0
108 209 -59 0
-174 110 -31 0
220 -177 -226 0
115 -240 -36 0
21 87 -70 0
-19 173 -218 0
-236 128 112 0
95 -49 -50 0
-80 -69 -9 0
57 224 -157 0
-4 52 113 0
96 201 66 0
20 -173 -223 0
203 227 148 0
25 -211 -30 0
-138 -229 -61 0
97 90 30 0
82 -70 57 0
-54 61 50 0
-187 152 -100 0
239 153 -123 0
110 240 -229 0
45 88 -138 0
-93 -167 214 0
196 111 186 0
-43 175 243 0
37 30 -233 0
66 190 198 0
-218 -238 -59 0
-60 119 -45 0
95 -164 -227 0
12 69 -88 0
-2 -183 120 0
-131 -176 -222 0
118 -181 127 0
-185 79 -214 0
-110 -66 244 0
-110 212 95 0
65 -199 33 0
-21 43 -96 0
167 -155 -225 0
163 109 -31 0
-112 -63 205 0
-148 -95 203 0
42 -118 -91 0
72 178 -89 0
-210 -17 -176 0
153 -156 99 0
8 139 168 0
215 17 -165 0
113 142 3 0
-161 -90 225 0
227 171 -67 0
38 180 -175 0
184 -62 -46 0
45 190 -202 0
-240 54 -218 0
-153 158 -230 0
66 181 -216 0
237 -86 -167 0
-56 201 -217 0
238 -92 -128 0
-71 182 17 0
-175 67 -110 0
-220 201 175 0
102 218 120 0
206 -201 35 0
-236 228 -156 0
98 -58 -120 0
211 -228 126 0
47 -90 -206 0
-52 -126 136 0
140 -111 -215 0
179 -92 -68 0
49 -172 14 0
-211 224 77 0
36 224 -87 0
-218 -64 -63 0
135 54 168 0
155 -130 77 0
-23 71 -211 0
-109 54 178 0
245 88 -216 0
-10 -44 73 0
7 45 149 0
-186 112 -116 0
102 -105 -233 0
25 -43 52 0
5 -193 54 0
-36 -198 -192 0
241 -188 76 0
-75 -242 33 0
-51 187 -113 0
153 216 -148 0
-33 -57 -58 0
-37 -186 198 0
129 -57 -230 0
9 -226 165 0
-206 -117 15 0
232 165 228 0
60 51 49 0
244 193 60 0
119 -7 -90 0
91 179 154 0
-161 -201 233 0
-69 -64 105 0
-154 -175 -179 0
163 246 -110 0
-119 -39 47 0
-178 72 71 0
-25 -15 -137 0
76 85 -185 0
121 237 75 0
129 45 228 0
-177 15 92 0
110 -160 -130 0
-8 -77 96 0
-105 91 -243 0
208 222 89 0
221 51 132 0
-158 -106 -65 0
-130 -155 -50 0
207 100 50 0
151 131 -122 0
-129 104 -203 0
109 -143 -181 0
181 125 169 0
-118 163 196 0
151 -80 51 0
162 49 -83 0
54 -176 -61 0
-142 -149 -7 0
205 181 -211 0
147 -121 240 0
-192 163 -214 0
-215 186 -209 0
-122 -43 -136 0
-164 -191 -13 0
119 -130 61 0
51 9 43 0
-88 148 62 0
46 -50 -61 0
110 -48 -118 0
167 -184 -217 0
-158 214 16 0
188 -156 75 0
-191 -166 174 0
227 -17 -36 0
30 39 -148 0
-106 -198 -211 0
28 68 145 0
87 -185 116 0
35 -142 232 0
-179 -230 8 0
96 47 -181 0
195 -16 139 0
-120 180 -43 0
229 198 -23 0
189 224 -14 0
135 105 -21 0
-235 -26 170 0
198 88 242 0
234 -8 230 0
201 43 189 0
8 -196 -119 0
-142 -34 -151 0
-137 -44 -37 0
-44 77 -237 0
127 -178 62 0
-205 -140 99 0
158 187 -51 0
181 49 141 0
-139 154 59 0
31 -56 -5 0
-232 -106 140 0
-244 -175 -105 0
-166 -14 -206 0
-174 240 -191 0
-159 72 -55 0
92 225 -121 0
53 108 179 0
-215 -42 -204 0
218 177 146 0
48 -232 -181 0
-14 -75 145 0
45 231 -10 0
-120 -115 112 0
47 -242 -193 0
199 -130 122 0
-200 216 -106 0
60 27 81 0
40 183 241 0
131 4 -68 0
117 -92 64 0
159 -47 225 0
144 -127 -49 0
-168 238 181 0
-192 -222 149 0
87 186 216 0
53 197 -222 0
151 -237 11 0
-155 -201 208 0
-163 197 212 0
235 188 -74 0
-26 -115 -212 0
-49 56 -187 0
-89 -101 -142 0
229 172 -224 0
174 -35 -167 0
-165 211 -242 0
83 145 90 0
-227 204 -53 0
241 -180 6 0
-143 108 221 0
-90 104 -195 0
-189 -13 21 0
86 -177 -201 0
149 -102 -202 0
185 200 -137 0
-12 100 224 0
-151 124 -27 0
65 39 160 0
-4 77 -246 0
238 -149 165 0
164 -246 173 0
-162 -131 76 0
-117 186 -105 0
-85 -219 -226 0
-226 114 -29 0
-137 -172 100 0
90 214 183 0
-203 -123 125 0
223 212 -216 0
-3 9 -152 0
-155 -79 -45 0
232 -103 -129 0
-243 206 223 0
135 202 -211 0
-81 -120 -235 0
-233 -230 218 0
214 221 -91 0
-68 -8 139 0
37 -81 -130 0
86 -190 -132 0
-241 61 91 0
40 -180 193 0
-89 -165 -138 0
-161 -224 -140 0
30 177 -21 0
-99 -5 -187 0
237 -156 130 0
49 -109 63 0
152 -156 64 0
-89 -173 246 0
228 -222 -146 0
155 244 -232 0
77 -20 -184 0
149 145 -175 0
152 111 -179 0
184 -204 72 0
176 -37 160 0
-220 -161 165 0
-159 64 -78 0
12 -41 120 0
194 155 -109 0
-72 -55 -99 0
-25 -216 -224 0
-115 206 245 0
-71 136 -216 0
193 1 -31 0
-98 -71 39 0
62 192 -28 0
217 53 73 0
66 -158 -102 0
-246 -30 -212 0
153 -225 176 0
-237 192 -69 0
-209 191 161 0
225 -164 -54 0
25 -123 -114 0
-171 -212 -101 0
-151 -92 -139 0
169 190 -240 0
-25 -224 -235 0
43 -93 5 0
200 -155 -233 0
96 -139 -164 0
-68 234 -103 0
51 -206 174 0
-53 -228 -134 0
41 -92 140 0
-81 243 -134 0
-1 5 233 0
95 46 172 0
161 -185 -154 0
171 134 192 0
48 210 -45 0
-21 126 -25 0
189 167 -110 0
45 186 -66 0
-95 116 77 0
-191 -138 38 0
36 -54 -38 0
128 54 138 0
226 127 229 0
-79 72 150 0
68 164 204 0
52 -3 -15 0
-65 -13 -130 0
-237 43 155 0
-82 -233 -86 0
-140 213 137 0
29 84 -131 0
-157 222 7 0
-45 -169 -185 0
145 6 55 0
-218 -245 205 0
98 -50 51 0
102 -135 -173 0
5 170 172 0
-87 -232 179 0
15 -74 240 0
-208 -27 106 0
-150 21 233 0
76 -188 -192 0
21 -24 -240 0
-200 -45 -89 0
46 -30 -28 0
220 96 -112 0
29 -57 -132 0
196 -167 -207 0
142 -60 -200 0
-86 99 182 0
-179 18 -10 0
-31 -108 234 0
59 -241 200 0
192 161 -60 0
202 157 163 0
207 246 2 0
-8 80 -146 0
-229 -121 -22 0
-175 225 26 0
-26 96 136 0
-74 75 106 0
-110 -229 -226 0
8 26 -185 0
-128 25 236 0
57 -230 -223 0
-11 -74 -232 0
5 116 130 0
207 97 -205 0
-55 17 -122 0
-28 155 -75 0
197 -132 153 0
-228 -111 -142 0
113 242 -167 0
-9 -33 184 0
60 112 15 0
-165 204 -160 0
-22 134 29 0
-111 141 -124 0
-5 -226 177 0
190 -194 231 0
-113 -128 41 0
-24 -182 -199 0
-64 -22 199 0
22 -234 -148 0
108 -123 136 0
48 160 117 0
-196 16 -70 0
-223 44 -82 0
-118 -223 -139 0
3 55 192 0
88 157 161 0
1 -81 -178 0
175 -66 -210 0
117 157 240 0
-67 -197 -196 0
-65 191 226 0
106 -89 44 0
92 98 -152 0
161 197 168 0
20 133 50 0
42 -81 133 0
178 -132 179 0
79 -118 50 0
-119 85 -144 0
82 -233 -153 0
-81 -143 -53 0
-162 79 -123 0
69 181 -148 0
-82 -183 37 0
100 -222 -90 0
110 41 19 0
162 1 -228 0
-69 -245 246 0
-215 -87 -188 0
40 -138 -59 0
132 -110 -184 0
83 -178 126 0
-198 218 205 0
-91 -197 -53 0
-183 -159 22 0
-134 223 -208 0
184 88 56 0
-141 150 -22 0
143 218 -162 0
-102 -182 -171 0
4 -32 -114 0
-96 149 -228 0
85 -83 -15 0
-244 140 128 0
226 -19 189 0
246 55 -228 0
-165 139 -100 0
18 -147 -168 0
82 8 -232 0
-2 107 111 0
198 190 23 0
-156 142 190 0
-88 -69 36 0
88 -178 -239 0
165 -163 -201 0
-149 -74 -119 0
246 -178 175 0
-77 -23 -92 0
190 198 -72 0
195 -153 -235 0
163 -111 -95 0
91 -70 52 0
-196 -206 152 0
-168 9 -71 0
-235 -236 159 0
-28 180 108 0
-98 -231 43 0
202 -224 74 0
191 45 117 0
-176 -126 97 0
140 233 226 0
234 -1 -7 0
192 -10 154 0
-96 35 63 0
-166 194 179 0
210 -205 -126 0
-21 -123 115 0
67 236 -221 0
-179 136 -64 0
-97 -2 -1 0
228 -81 -211 0
187 212 242 0
104 -215 -6 0
202 83 -126 0
208 -2 -238 0
132 11 -91 0
97 -117 105 0
234 -140 191 0
162 23 100 0
82 -194 -134 0
-103 -95 136 0
16 128 -124 0
-26 243 -242 0
-187 117 131 0
30 -203 84 0
203 56 -234 0
-173 -146 -36 0
213 -234 13 0
-95 122 78 0
73 9 -45 0
-148 -242 -153 0
-133 215 -178 0
217 117 -9 0
156 -87 -81 0
-140 -72 122 0
-73 -111 51 0
137 18 162 0
5 -182 68 0
198 -240 -43 0
222 48 81 0
179 41 -108 0
-199 80 -24 0
82 -151 -66 0
23 59 -87 0
29 102 136 0
-77 209 -181 0
212 -104 -135 0
-192 221 -11 0
124 11 -192 0
-154 141 -26 0
246 150 83 0
202 -134 26 0
142 174 95 0
-238 100 155 0
-88 53 40 0
112 -33 -150 0
-73 -5 -118 0
-138 -43 185 0
-70 88 83 0
109 -232 9 0
23 -162 -172 0
-163 186 -189 0
-119 -191 17 0
200 187 -235 0
125 -244 179 0
35 -3 -31 0
-177 -29 -229 0
-98 65 214 0
180 -245 17 0
172 231 -138 0
235 168 -122 0
-127 -58 194 0
-37 -163 77 0
-110 -94 -174 0
151 141 -96 0
-4 -90 183 0
91 194 -84 0
199 -177 33 0
-246 -185 48 0
15 -11 -65 0
29 -32 -117 0
151 29 45 0
246 -44 -138 0
-104 -107 131 0
-6 7 215 0
84 -1 -148 0
132 -180 157 0
198 -160 -77 0
-161 -205 43 0
101 15 -5 0
230 -199 -140 0
64 -155 -153 0
76 65 -173 0
-107 -67 53 0
-150 227 220 0
-59 -51 -1 0
-150 -45 -110 0
176 218 194 0
-137 -115 -13 0
183 27 109 0
201 212 -38 0
194 49 -168 0
123 51 -87 0
-41 -59 123 0
189 -106 230 0
135 205 -228 0
128 144 200 0
192 -122 58 0
-72 -162 63 0
-13 243 128 0
163 18 155 0
-27 -205 26 0
98 -72 -67 0
126 -131 164 0
145 -190 -79 0
-19 185 53 0
130 -7 198 0
-3 -234 84 0
-80 -152 -204 0
-126 107 59 0
239 -180 164 0
-176 233 -227 0
216 36 172 0
-15 -197 -93 0
-129 -237 -173 0
107 196 -142 0
181 184 -13 0
164 -243 92 0
-117 236 168 0
-87 -170 7 0
-74 -35 62 0
-211 -160 92 0
64 119 174 0
-60 55 232 0
-107 -30 -152 0
-45 -67 -93 0
202 187 106 0
-30 246 183 0
-185 34 103 0
168 143 132 0
140 -97 31 0
103 57 -202 0
39 106 102 0
184 95 83 0
-42 179 104 0
107 -30 -46 0
90 -127 169 0
-90 15 93 0
242 -65 -234 0
58 181 -60 0
240 101 -94 0
-89 -108 -221 0
232 14 217 0
144 -184 168 0
125 -84 89 0
-60 157 139 0
13 211 -138 0
-52 -112 -5 0
-133 89 54 0
56 28 -20 0
226 164 57 0
18 212 -242 0
237 30 35 0
-121 -81 214 0
1 117 -79 0
-50 -93 137 0
-92 -235 229 0
130 220 -62 0
-93 -243 11 0
57 71 -35 0
-122 79 34 0
-203 137 -140 0
-176 -9 156 0
-135 -224 -231 0
-36 72 -5 0
-64 14 25 0
-195 209 216 0
-30 54 -155 0
90 -207 229 0
