p cnf 150 637
29 7 71 0
140 23 109 0
-7 -144 51 0
-115 72 2 0
-72 40 56 0
-25 -92 -89 0
138 32 -97 0
-93 148 50 0
-75 21 60 0
94 -42 -95 0
-19 44 137 0
-143 -57 84 0
9 81 -103 0
81 -55 128 0
-68 -36 -64 0
110 -150 103 0
-127 24 13 0
109 -17 -99 0
-142 -3 30 0
88 29 -76 0
-68 129 -46 0
130 51 -40 0
136 1 83 0
79 -62 15 0
-125 18 137 0
-141 -43 -68 0
139 -52 80 0
133 116 31 0
142 -59 57 0
18 9 -85 0
-55 -139 -34 0
63 122 105 0
-109 106 -120 0
-26 -16 104 0
50 49 138 0
-64 -20 114 0
-139 -4 24 0
-125 -124 55 0
-1 -100 68 0
143 125 40 0
139 -16 -81 0
-136 41 15 0
18 -61 104 0
-11 -21 108 0
67 53 -81 0
-77 -118 81 0
-145 -26 19 0
90 18 -63 0
-78 -136 -3 0
27 35 -68 0
-70 73 -54 0
68 -130 126 0
109 -71 -12 0
-68 42 114 0
20 39 -140 0
111 -33 -11 0
-11 -92 54 0
-144 105 40 0
46 -106 -7 0
106 -64 69 0
10 -121 57 0
-59 58 7 0
-18 72 -90 0
138 -85 8 0
-68 10 -28 0
112 -131 30 0
-112 -1 -134 0
51 -94 111 0
-81 -32 77 0
76 -142 33 0
45 -146 78 0
-54 111 149 0
-55 -131 -122 0
-22 -73 132 0
-61 80 58 0
122 -19 117 0
99 -127 103 0
28 -109 -57 0
-13 143 64 0
-119 -136 -144 0
130 110 -141 0
-116 67 -64 0
125 -62 71 0
86 82 139 0
40 55 17 0
16 -53 -108 0
6 -148 98 0
-100 -108 -138 0
57 125 70 0
-104 -43 -120 0
101 145 -7 0
47 13 67 0
98 72 108 0
139 14 -90 0
11 8 64 0
-33 122 -30 0
-95 43 30 0
-149 -7 80 0
51 -20 -63 0
31 145 11 0
-130 -88 4 0
93 -118 -40 0
70 -138 -124 0
83 63 -23 0
146 -98 87 0
55 -91 -67 0
-71 143 3 0
-105 -126 -143 0
126 115 -5 0
79 -149 95 0
-141 85 91 0
31 -50 -81 0
-48 50 -56 0
-135 73 26 0
78 4 137 0
75 33 126 0
123 113 -88 0
123 30 -17 0
-14 39 145 0
-143 107 -58 0
-77 110 -79 0
26 54 55 0
142 20 -41 0
75 9 -60 0
-19 -60 -68 0
-51 -109 -30 0
37 19 -16 0
146 -74 -113 0
70 129 139 0
111 83 -65 0
-148 -6 69 0
133 -114 -72 0
126 24 -121 0
-42 85 -106 0
141 10 117 0
-104 -132 1 0
-49 133 93 0
-14 -53 69 0
-125 -32 8 0
41 80 142 0
-30 119 -31 0
75 131 70 0
117 -142 -38 0
-35 -18 71 0
130 69 -1 0
-126 39 -115 0
-140 -97 -117 0
62 -147 99 0
-122 -98 -99 0
39 -127 10 0
-26 113 135 0
-40 20 -121 0
-102 -21 85 0
82 125 -139 0
74 59 -24 0
-26 -114 43 0
15 76 -92 0
145 -47 44 0
62 128 150 0
-66 -3 120 0
-114 89 77 0
-78 51 99 0
-92 148 -76 0
-102 -71 -3 0
-13 128 -74 0
-57 -49 -65 0
36 25 -11 0
34 24 76 0
-139 94 136 0
-124 76 87 0
58 -102 143 0
138 -32 117 0
-98 96 -28 0
-144 -84 57 0
78 -105 30 0
127 -30 25 0
-95 -139 -108 0
-26 126 -105 0
-56 114 -61 0
140 92 16 0
-117 -24 55 0
-86 63 -33 0
-142 54 -56 0
-1 -71 -38 0
29 -7 34 0
83 5 45 0
30 17 -122 0
-116 129 -57 0
-134 78 -118 0
103 -110 28 0
21 83 -38 0
-141 -84 98 0
-111 -26 -30 0
-56 111 -116 0
103 107 25 0
40 122 18 0
96 -34 -143 0
-32 -106 91 0
14 -74 80 0
124 -58 28 0
-72 -147 -58 0
143 7 -69 0
87 90 -2 0
18 -37 8 0
117 -88 -41 0
146 -22 14 0
-21 70 114 0
70 56 132 0
125 135 -79 0
-2 -53 -78 0
75 -84 31 0
-98 -137 -59 0
19 102 11 0
-81 -148 110 0
-30 104 -6 0
118 93 23 0
103 135 21 0
-86 44 -20 0
90 38 61 0
-40 -20 46 0
-145 -149 -115 0
83 81 -39 0
-71 15 91 0
15 -95 -74 0
-130 -99 -119 0
-11 116 147 0
39 -16 116 0
22 -130 -45 0
135 -134 41 0
87 14 -86 0
73 -65 39 0
90 -80 101 0
-144 -97 -85 0
-135 24 109 0
55 -88 125 0
-76 -26 -130 0
-10 87 34 0
43 -113 12 0
114 73 -115 0
-121 -50 95 0
-73 -98 -129 0
-36 -65 -14 0
27 -133 32 0
132 -38 -112 0
90 -7 107 0
21 -96 -58 0
86 -38 36 0
-36 -121 115 0
-56 -39 141 0
74 61 -78 0
-118 17 -29 0
-132 148 62 0
91 -62 147 0
-93 -18 -135 0
6 100 121 0
5 -92 -18 0
149 -86 -35 0
-45 -119 123 0
118 -10 -76 0
81 -80 132 0
10 -49 -74 0
-85 70 32 0
-113 99 87 0
-133 69 -22 0
47 140 -76 0
79 115 110 0
-91 -112 71 0
-104 -94 -132 0
37 113 -9 0
93 99 146 0
-95 -96 -114 0
102 81 -72 0
-128 133 -100 0
-115 -55 74 0
35 -19 -116 0
-82 89 17 0
-41 45 93 0
36 -61 127 0
142 34 -23 0
-123 -135 106 0
82 -19 116 0
142 -47 34 0
32 133 -40 0
-58 -89 133 0
-142 -71 33 0
44 -149 -40 0
-87 145 11 0
-148 68 -54 0
-128 140 75 0
104 77 117 0
124 119 -53 0
82 89 -103 0
82 62 120 0
-13 75 -99 0
-41 84 148 0
-132 120 128 0
-101 130 118 0
-13 -73 -127 0
-74 138 -3 0
94 -104 12 0
142 74 -19 0
31 -33 25 0
-94 37 51 0
-10 -36 86 0
-132 36 84 0
-77 -87 -130 0
77 -122 -5 0
-150 79 -7 0
-149 -148 59 0
98 -38 63 0
5 113 81 0
-129 -121 -16 0
123 135 -97 0
-88 -140 -91 0
-68 124 50 0
-77 74 54 0
144 -71 74 0
102 89 -38 0
-89 114 -66 0
70 -144 36 0
-13 136 58 0
121 -26 -36 0
-105 -122 123 0
-74 16 -23 0
-10 45 -107 0
-102 -127 -48 0
-10 3 -77 0
-73 -117 140 0
130 120 70 0
118 66 48 0
-50 -45 104 0
25 -48 36 0
-99 -61 115 0
-147 -3 67 0
31 -120 -79 0
80 31 -76 0
-123 -40 117 0
-141 -121 -138 0
-21 135 -115 0
-29 16 -141 0
43 -84 -134 0
126 24 131 0
107 117 -145 0
-6 -102 -66 0
-12 -109 89 0
18 121 9 0
108 -96 98 0
-21 139 35 0
138 -101 -136 0
-6 -77 -119 0
59 64 -118 0
-29 -9 -108 0
62 53 -18 0
13 63 12 0
-15 36 -129 0
148 -82 -83 0
134 57 -106 0
45 -110 -143 0
-98 135 82 0
48 138 -122 0
-37 -119 -15 0
35 100 63 0
-116 -95 24 0
97 -11 -19 0
144 -56 123 0
-4 55 -49 0
123 63 53 0
-73 98 120 0
132 -128 120 0
82 53 -95 0
-38 -5 -67 0
76 40 -51 0
128 -141 -87 0
-126 118 44 0
-140 -126 -48 0
-16 135 -9 0
13 -2 106 0
-39 3 -56 0
124 -125 5 0
-136 71 -138 0
-111 -46 28 0
135 65 91 0
104 -118 145 0
21 9 24 0
3 44 -22 0
-145 25 -136 0
146 122 -70 0
140 -145 9 0
-54 37 -102 0
146 -100 139 0
21 129 -89 0
88 102 -84 0
-126 59 92 0
-150 98 22 0
19 -22 -69 0
100 82 93 0
93 70 27 0
143 132 -105 0
84 99 4 0
-144 -63 147 0
69 78 127 0
77 -124 -20 0
127 51 -118 0
86 98 -85 0
-35 -77 83 0
46 -102 82 0
148 -63 84 0
-30 -145 -52 0
-141 7 -119 0
18 105 128 0
40 -109 97 0
-103 -137 130 0
-10 -93 138 0
-64 91 -43 0
103 85 111 0
-133 143 149 0
119 129 39 0
-107 -22 30 0
-88 117 53 0
116 -82 18 0
-88 -28 -43 0
-142 -41 85 0
104 -48 -111 0
116 110 100 0
-17 -148 27 0
51 -118 -30 0
-81 100 -101 0
-45 77 22 0
-30 -47 96 0
36 148 -99 0
45 143 43 0
-116 14 92 0
-99 144 130 0
114 126 -43 0
75 9 -71 0
-145 -127 141 0
-140 94 -139 0
140 -56 -109 0
77 -9 116 0
-31 -61 54 0
-110 -43 -36 0
146 -90 137 0
-75 -147 -69 0
-25 -35 -106 0
33 34 64 0
-101 126 37 0
116 -20 -24 0
95 117 -125 0
-24 -118 92 0
110 -55 127 0
-148 -34 -145 0
-13 -12 26 0
41 -113 117 0
-34 -78 41 0
93 -65 22 0
102 79 60 0
55 123 -20 0
-3 88 31 0
19 -59 99 0
95 -77 -36 0
-37 -18 136 0
-90 -55 39 0
56 23 -26 0
-90 110 -81 0
-64 -142 -73 0
-78 53 133 0
14 62 -127 0
-19 -136 4 0
-146 108 94 0
19 5 -18 0
-102 -130 74 0
-103 22 138 0
-21 131 53 0
-17 -80 112 0
23 -112 30 0
-45 -31 4 0
-89 -134 133 0
-33 69 -31 0
70 -135 -17 0
128 117 -131 0
-95 -41 -66 0
30 -59 131 0
12 121 -94 0
10 142 -108 0
-82 70 -20 0
-14 -46 -58 0
-18 120 73 0
117 -3 95 0
-63 119 -95 0
51 -140 63 0
-139 89 -3 0
-79 27 53 0
16 -37 -72 0
134 -106 -96 0
130 -35 101 0
34 61 -75 0
84 82 116 0
150 28 40 0
-31 138 92 0
68 -31 -24 0
11 -56 -84 0
-102 132 -13 0
-8 -104 116 0
27 -36 -32 0
34 -51 -103 0
150 67 -20 0
-114 -33 24 0
11 -119 -13 0
102 128 8 0
48 71 -72 0
63 -76 128 0
72 -99 -36 0
-64 -140 5 0
-140 -125 89 0
-47 7 -82 0
-72 -15 -121 0
-41 26 -64 0
-15 -57 148 0
-45 -46 -61 0
-8 -91 146 0
127 139 80 0
57 6 -135 0
-34 -88 46 0
-6 -38 -37 0
-19 96 102 0
-41 112 -125 0
92 -58 45 0
46 -1 -147 0
-9 -47 82 0
145 -27 128 0
-82 -43 -23 0
86 115 3 0
66 28 1 0
-43 106 127 0
123 148 -58 0
76 6 82 0
-97 -42 20 0
-124 8 -111 0
41 -14 26 0
-142 139 68 0
-101 147 141 0
-110 -23 76 0
25 7 53 0
30 -79 102 0
140 100 48 0
12 68 113 0
16 39 -25 0
-59 -142 16 0
-138 122 147 0
-9 -129 -147 0
38 -31 -115 0
50 -33 11 0
-38 -67 82 0
-100 -143 -102 0
4 134 -108 0
-150 26 28 0
138 -89 -106 0
122 10 -45 0
-103 10 102 0
122 -69 96 0
-72 126 26 0
-114 -83 69 0
-114 -55 -105 0
15 -132 41 0
135 -146 8 0
15 -64 -9 0
-71 -95 119 0
8 62 -96 0
122 -142 90 0
24 73 -8 0
-55 57 58 0
-6 -3 -122 0
-3 -58 -65 0
-71 109 97 0
-78 134 -102 0
96 144 73 0
-71 -84 -67 0
-49 -39 -133 0
-104 -82 -36 0
67 108 -104 0
-147 49 -88 0
122 92 -130 0
143 47 76 0
-144 47 86 0
79 -108 85 0
-31 -121 -14 0
-19 -121 50 0
-77 106 -14 0
-88 -105 146 0
47 -21 125 0
15 -2 116 0
41 126 23 0
110 -123 -99 0
4 -83 -136 0
64 58 -89 0
-79 43 17 0
134 -135 87 0
126 -92 -49 0
-5 59 -58 0
130 -44 32 0
-66 137 13 0
6 13 -30 0
-122 -40 53 0
-26 -134 70 0
27 -131 31 0
-52 68 134 0
42 11 -141 0
85 61 1 0
-147 -127 39 0
26 -66 60 0
-13 -26 45 0
81 -110 30 0
36 44 -85 0
24 96 -88 0
-70 -99 -123 0
-29 -34 16 0
124 146 113 0
-8 34 124 0
-12 17 -67 0
135 -148 -145 0
133 -134 25 0
-99 -39 143 0
-41 -130 121 0
126 83 -62 0
-141 97 104 0
-147 115 23 0
128 5 -27 0
-24 -78 131 0
-88 -94 14 0
122 -94 116 0
-88 91 75 0
-43 -127 36 0
66 -51 49 0
-49 87 -28 0
-32 -116 118 0
-128 -2 136 0
-150 -124 -131 0
