p cnf 242 1028
-61 78 27 0
-6 -103 -141 0
57 -134 -138 0
-68 -55 -242 0
205 70 -50 0
219 -218 226 0
100 130 64 0
-240 -210 222 0
-75 -147 -181 0
106 109 154 0
67 209 -205 0
-72 -133 137 0
173 51 -18 0
71 -48 -92 0
51 232 83 0
-196 150 -158 0
75 -118 -7 0
-74 189 173 0
40 -199 -167 0
-210 -20 76 0
-65 98 154 0
12 -117 -44 0
-147 25 113 0
16 -15 189 0
-11 140 126 0
-214 136 -75 0
123 52 62 0
-114 -64 166 0
9 -10 -66 0
107 223 -67 0
145 -30 -146 0
203 184 191 0
-239 -224 147 0
-169 121 205 0
-56 168 -206 0
-128 -20 -220 0
-12 -102 231 0
220 -16 -223 0
192 -104 238 0
-41 4 -157 0
201 98 -225 0
42 -172 -156 0
121 235 -135 0
-29 -126 144 0
-93 -21 197 0
89 -212 20 0
202 80 -100 0
-25 -20 30 0
-112 107 -220 0
241 -51 164 0
205 143 -43 0
84 -127 -221 0
-182 44 2 0
202 184 154 0
217 76 -92 0
-1 174 -14 0
-120 -201 -234 0
113 157 -159 0
93 170 88 0
208 -160 46 0
-204 90 173 0
240 232 46 0
227 -6 -155 0
-206 92 207 0
-127 170 -147 0
30 -45 167 0
202 -213 170 0
154 61 230 0
-191 -84 -138 0
103 130 -210 0
-65 -48 -230 0
-94 104 100 0
-162 236 89 0
-67 124 -57 0
17 39 -237 0
-42 -102 -203 0
-138 68 5 0
9 82 -21 0
-74 157 228 0
-107 34 225 0
-1 -186 226 0
-217 77 124 0
228 -66 -132 0
85 -44 100 0
-174 5 78 0
218 156 211 0
234 -184 -137 0
-181 -223 236 0
-45 214 -136 0
-234 -92 79 0
-189 10 -211 0
-170 152 -79 0
-207 -214 -22 0
-169 -179 -10 0
91 238 -21 0
212 154 183 0
201 155 -233 0
-228 212 131 0
-71 -160 5 0
179 -38 -55 0
209 -77 220 0
-106 -127 17 0
177 -73 202 0
-55 -5 123 0
-194 -233 105 0
193 -159 54 0
-68 -156 -74 0
-81 23 240 0
55 240 -239 0
196 30 -166 0
-43 24 -63 0
-81 -76 -223 0
-20 -170 -217 0
194 197 206 0
-84 -162 -85 0
42 -44 -194 0
176 -241 -238 0
172 216 127 0
123 154 140 0
-104 215 10 0
57 -76 -61 0
174 -89 -99 0
-49 90 48 0
-49 76 -212 0
-241 -11 79 0
97 159 -119 0
-115 -8 191 0
-30 85 76 0
42 -173 135 0
-86 154 6 0
-205 150 -36 0
60 -112 190 0
-89 -238 -173 0
89 -67 -153 0
-94 147 -221 0
-19 -227 161 0
-183 -36 153 0
-241 -21 -182 0
-140 46 -68 0
72 54 -165 0
16 228 36 0
-136 155 219 0
174 -21 205 0
-217 174 -51 0
237 21 24 0
133 -135 109 0
-44 -162 -52 0
-17 -36 -112 0
133 84 -132 0
-31 -149 165 0
-12 197 70 0
-92 -195 40 0
-160 -116 -44 0
-7 149 -143 0
-176 -147 -186 0
-42 -78 -81 0
137 124 -159 0
81 -25 -222 0
50 -46 113 0
-2 -12 -222 0
46 -58 235 0
-62 162 -114 0
88 203 12 0
-42 -112 -176 0
-88 131 90 0
-25 195 -97 0
111 142 188 0
135 54 193 0
117 -113 189 0
-103 172 -80 0
27 205 -236 0
20 -182 -125 0
148 219 160 0
-137 -10 -134 0
-61 158 -48 0
237 -109 113 0
-222 242 4 0
226 190 192 0
-68 -139 -184 0
-124 -198 -154 0
-190 -123 -90 0
-231 9 -191 0
-178 48 227 0
176 223 -147 0
198 88 40 0
60 71 204 0
185 189 -164 0
140 158 42 0
-204 -49 57 0
-68 -147 -104 0
-87 -169 163 0
-15 221 -87 0
18 53 183 0
-18 -242 218 0
-38 -186 232 0
-210 97 235 0
-162 -117 -137 0
94 -145 111 0
-2 69 -102 0
-202 238 -181 0
-240 239 -42 0
-167 -48 157 0
191 19 208 0
25 166 136 0
-195 -49 30 0
234 70 -2 0
-189 126 -154 0
-49 218 -126 0
-86 188 -9 0
242 136 83 0
-132 111 -211 0
177 195 194 0
-40 -29 -182 0
-236 -153 129 0
-69 -96 -192 0
-41 -99 131 0
-9 82 57 0
121 184 172 0
54 -179 166 0
-228 -142 -49 0
-86 -66 195 0
14 -181 187 0
-113 94 102 0
-121 -105 -65 0
114 -136 -93 0
-47 -38 -78 0
-17 -127 -172 0
-183 -72 160 0
105 -70 -128 0
28 -35 -237 0
-143 -116 236 0
-84 -67 -139 0
-44 227 6 0
-88 16 147 0
26 61 -147 0
105 230 -187 0
-134 -162 -115 0
122 132 45 0
-162 -19 -113 0
135 -179 -50 0
233 203 -99 0
-16 84 -201 0
89 37 57 0
67 242 -231 0
-130 44 151 0
-73 -203 81 0
242 -55 -52 0
17 66 156 0
192 -242 36 0
-42 185 -89 0
28 143 -236 0
-125 48 -33 0
-203 34 -215 0
-210 182 167 0
185 236 -113 0
-80 41 -237 0
40 130 170 0
-189 211 -214 0
77 44 -113 0
161 -44 -157 0
-24 -8 -35 0
-46 148 -68 0
87 81 -165 0
-29 -129 -81 0
-168 -80 15 0
-67 203 -1 0
-166 -153 -16 0
114 202 -172 0
-143 221 217 0
-55 173 169 0
222 156 91 0
108 56 -138 0
-188 -108 -68 0
31 -47 -222 0
-207 -186 20 0
-26 59 -145 0
43 -18 69 0
-21 -201 -223 0
220 23 109 0
-223 234 101 0
-117 161 -193 0
-77 192 -92 0
57 188 142 0
-95 127 -57 0
-7 141 -39 0
15 -160 161 0
-150 7 -183 0
39 17 49 0
121 205 -200 0
-38 224 -194 0
98 70 203 0
221 -102 77 0
31 222 225 0
194 186 70 0
-66 -146 -192 0
8 212 -73 0
-195 -58 -185 0
242 176 112 0
-153 -211 -225 0
-200 -33 5 0
34 156 -108 0
54 206 60 0
143 63 -186 0
190 -123 48 0
-130 25 -227 0
54 -219 77 0
-171 -239 41 0
145 128 149 0
219 -154 -177 0
-188 58 -242 0
126 -145 -45 0
-88 -61 -201 0
-41 110 194 0
-173 -202 105 0
-34 -126 171 0
48 56 -25 0
213 71 -193 0
1 15 -204 0
146 -203 110 0
-194 -208 -108 0
130 129 -174 0
154 173 158 0
-192 -171 107 0
-115 -40 -90 0
-13 -132 -118 0
-93 -135 -110 0
-158 -216 -237 0
204 1 -223 0
-220 25 -151 0
165 -16 131 0
-242 143 114 0
-45 61 82 0
205 220 17 0
-14 -162 -150 0
-57 129 9 0
225 -10 176 0
-42 -98 86 0
117 67 -180 0
-54 -210 62 0
-227 158 207 0
-208 -166 186 0
-91 -181 -47 0
36 -126 -10 0
-190 -170 167 0
-242 -202 -15 0
-103 -222 30 0
-43 82 218 0
-148 -12 123 0
104 72 106 0
130 15 -75 0
236 97 -128 0
177 116 37 0
-94 173 -17 0
133 -33 -26 0
-81 -134 -46 0
68 237 -66 0
22 174 130 0
-228 -171 37 0
46 -17 73 0
31 -230 -208 0
-197 217 22 0
-67 -136 95 0
-13 39 -212 0
-159 -122 -13 0
-181 24 186 0
62 -230 147 0
-150 57 108 0
210 -122 140 0
227 40 -45 0
-200 -229 20 0
186 80 202 0
146 -41 -240 0
-113 -130 48 0
-242 -240 -182 0
-190 -34 -146 0
-6 -145 -18 0
-165 -83 139 0
-64 208 222 0
-101 -239 21 0
-239 -47 163 0
-132 65 -92 0
-26 199 35 0
-20 -4 85 0
45 171 -188 0
-20 14 -191 0
197 -87 174 0
143 -139 -83 0
-208 -190 16 0
87 26 242 0
212 199 195 0
-52 169 91 0
-71 -44 28 0
162 -116 26 0
236 221 -180 0
-199 82 126 0
19 81 -13 0
130 -189 103 0
-49 -16 212 0
175 -227 70 0
-225 89 -137 0
-216 -155 179 0
-149 236 -198 0
47 -152 -12 0
-36 95 67 0
42 -59 -157 0
-131 104 -20 0
80 -23 -145 0
-158 -14 43 0
122 -127 97 0
-49 -79 -158 0
-202 -6 180 0
240 92 -149 0
-232 -71 -91 0
-210 85 46 0
-155 110 159 0
112 -192 -12 0
192 212 -25 0
82 206 -13 0
219 -126 -95 0
-28 -184 -4 0
-11 -21 159 0
15 41 57 0
70 -165 -10 0
-6 -56 164 0
3 -213 50 0
180 -26 -196 0
-75 -21 -43 0
-153 -214 194 0
-155 -21 38 0
162 -139 -208 0
-32 202 -226 0
-133 212 162 0
-198 70 57 0
102 -115 -213 0
145 -240 -100 0
-109 -144 60 0
48 55 -181 0
-15 79 198 0
63 61 -152 0
96 -179 124 0
68 -187 148 0
-234 -144 172 0
233 -98 220 0
67 200 -124 0
-179 10 -172 0
-152 128 142 0
214 -135 -168 0
167 48 83 0
-112 -130 230 0
-96 1 -111 0
71 -3 -8 0
-33 -219 -233 0
29 -120 24 0
-101 -41 -37 0
55 -212 -183 0
70 128 -212 0
-160 -207 -12 0
240 180 84 0
-208 21 190 0
-86 1 -8 0
-180 -242 79 0
-96 237 -113 0
-198 -205 -222 0
36 -119 -71 0
-134 -83 20 0
-129 84 -13 0
-13 25 37 0
81 -58 -220 0
26 -123 137 0
237 26 57 0
227 -188 -141 0
-200 -223 29 0
-56 103 174 0
180 -176 53 0
-235 134 6 0
230 -120 112 0
158 1 180 0
83 65 12 0
-10 -91 83 0
-59 -232 112 0
102 -6 130 0
210 153 -1 0
5 -226 -99 0
101 120 66 0
108 -23 -184 0
184 -108 -28 0
-121 170 -81 0
39 -240 233 0
-187 -91 154 0
164 2 -88 0
-10 -87 -227 0
-188 -213 190 0
-44 223 80 0
-196 82 -227 0
115 164 59 0
41 -194 -127 0
-68 -214 230 0
189 -87 151 0
-194 -116 32 0
-81 -166 232 0
192 203 83 0
135 -115 217 0
105 -180 -196 0
45 240 -101 0
-153 53 -7 0
200 -133 53 0
-211 -183 35 0
-234 -131 144 0
-46 104 -142 0
228 -233 -217 0
77 -68 -145 0
28 107 -69 0
130 216 -99 0
227 78 109 0
137 55 -31 0
-119 99 -42 0
173 166 -179 0
40 -188 37 0
-191 -72 124 0
82 137 74 0
-77 -95 126 0
-227 13 -158 0
-56 -191 -181 0
121 128 173 0
-153 169 145 0
62 19 -69 0
224 119 144 0
-215 31 -40 0
-207 -129 -25 0
100 -211 -89 0
26 -1 -166 0
-121 -177 -34 0
202 -9 1 0
-204 126 242 0
-73 -35 84 0
-96 204 -127 0
-170 -196 217 0
-176 72 -128 0
-196 142 214 0
29 203 -196 0
10 52 -71 0
-77 -179 -126 0
-218 -145 -140 0
168 -124 -73 0
151 174 -61 0
-4 176 -2 0
-103 -192 66 0
154 30 214 0
-238 62 -141 0
27 22 -46 0
-86 156 -163 0
189 142 35 0
-31 77 148 0
121 166 -5 0
147 -106 217 0
-166 -31 -192 0
-225 164 231 0
90 -84 -66 0
61 60 65 0
41 226 -168 0
184 -142 -232 0
151 239 -192 0
203 -202 -44 0
-144 -63 23 0
143 -44 -213 0
-200 -50 43 0
-146 209 226 0
26 126 163 0
-146 125 2 0
214 -226 234 0
145 67 -117 0
-92 24 234 0
-114 -189 171 0
-120 -216 147 0
7 -49 102 0
-97 -211 -102 0
-221 150 201 0
-189 11 32 0
-38 -217 -80 0
94 7 73 0
-14 -64 113 0
80 57 -46 0
72 -206 165 0
-78 199 -161 0
-189 105 -133 0
98 237 -149 0
46 154 66 0
202 -133 -114 0
55 -97 39 0
179 -25 23 0
-155 -208 -13 0
150 -28 -14 0
141 -217 -45 0
-118 -199 103 0
-242 -199 109 0
-77 -23 -136 0
199 64 55 0
229 -109 -50 0
-209 162 144 0
132 -46 -236 0
182 38 -197 0
190 194 151 0
-43 92 95 0
-14 -118 -239 0
168 204 83 0
-235 -37 -77 0
65 205 -67 0
-77 -231 136 0
184 -181 155 0
-197 -77 -211 0
98 158 50 0
123 109 216 0
124 14 170 0
-176 127 130 0
-45 -231 204 0
-82 212 204 0
234 211 222 0
185 -204 -125 0
208 91 -95 0
-156 146 135 0
236 -76 104 0
-198 178 33 0
-235 218 9 0
-33 -218 27 0
-175 -231 -218 0
-224 -211 -2 0
-82 39 -172 0
17 -73 -23 0
-129 121 -54 0
163 63 -121 0
-137 40 -203 0
-143 66 225 0
119 -136 64 0
-148 82 188 0
48 216 7 0
-197 141 88 0
-121 179 18 0
-193 24 131 0
-184 210 -6 0
14 220 -194 0
-121 211 -212 0
-49 204 -211 0
-29 -142 -16 0
-137 -113 178 0
230 113 79 0
103 -101 27 0
23 8 -53 0
-116 -242 213 0
137 -133 -203 0
216 113 -19 0
108 -185 74 0
124 -141 -120 0
159 -32 -126 0
107 -190 -88 0
218 -108 86 0
99 188 -14 0
-164 201 -94 0
-133 82 -127 0
201 -198 -150 0
68 -170 -162 0
-36 -154 67 0
-9 171 208 0
80 231 53 0
31 -15 208 0
73 -44 37 0
-25 138 -242 0
82 47 -230 0
-58 -108 121 0
80 72 -135 0
45 143 -159 0
-182 -22 149 0
234 -121 79 0
-227 165 -97 0
-154 82 102 0
-11 218 43 0
-48 16 -52 0
177 -160 53 0
-82 111 10 0
85 -27 -121 0
123 37 177 0
110 -71 -230 0
-226 -129 53 0
124 153 224 0
-48 -164 30 0
-17 -177 95 0
-186 119 -206 0
204 -2 190 0
63 210 -212 0
27 -211 -242 0
-17 61 -137 0
-150 69 65 0
-103 95 -112 0
-156 9 36 0
29 -141 57 0
-48 -235 -16 0
-202 -86 -4 0
-28 -174 216 0
15 167 -132 0
-9 159 52 0
82 -184 119 0
-75 -190 -74 0
36 104 185 0
-65 -5 191 0
221 127 233 0
-6 26 104 0
-199 190 106 0
105 160 156 0
-72 -170 -54 0
-5 53 173 0
-129 57 -206 0
-159 -23 121 0
92 100 191 0
151 153 88 0
223 -166 206 0
-57 -139 84 0
96 192 -217 0
-229 -45 34 0
149 27 171 0
-230 -198 68 0
-211 -174 160 0
-182 -60 -212 0
109 -51 197 0
-51 96 48 0
205 242 166 0
129 43 111 0
192 -57 -25 0
-77 -172 -228 0
-156 -193 -199 0
158 -82 39 0
-34 -29 -57 0
-97 -101 25 0
-48 72 -159 0
-90 59 -56 0
105 10 36 0
236 111 170 0
-47 -136 219 0
197 73 161 0
-202 -207 -12 0
68 -59 207 0
-13 58 160 0
150 -73 -31 0
52 -191 -79 0
-91 225 -43 0
-190 200 -67 0
26 -200 -223 0
-61 -27 83 0
-26 -226 82 0
-191 -39 92 0
-158 -43 179 0
-63 129 -100 0
93 -87 226 0
172 -14 78 0
-74 139 134 0
-126 235 153 0
-230 -22 78 0
-123 -232 26 0
212 -202 -3 0
-124 -8 110 0
-138 -128 -10 0
184 -16 94 0
-66 -148 -64 0
52 34 174 0
-51 -117 44 0
-206 -237 215 0
109 112 231 0
-8 -192 -16 0
-27 -37 210 0
139 -119 -241 0
-4 -121 46 0
-211 49 -131 0
96 80 18 0
-110 26 -133 0
-44 -71 -135 0
43 -209 -1 0
-33 -39 64 0
49 -198 -107 0
228 179 -107 0
17 93 164 0
-37 135 -30 0
110 -140 77 0
198 -151 -105 0
177 169 -25 0
-173 -141 -116 0
-236 70 -41 0
-3 56 79 0
-6 -72 -102 0
-191 162 68 0
122 230 -121 0
-214 -27 170 0
-24 126 95 0
190 -24 -145 0
-126 167 -151 0
-209 186 -187 0
48 -81 -194 0
-214 212 199 0
199 29 236 0
52 94 15 0
-58 -49 -122 0
34 232 233 0
87 -194 -26 0
151 -22 62 0
-185 55 -32 0
184 -105 -152 0
-49 236 136 0
-144 -90 155 0
78 -68 91 0
45 93 127 0
78 -91 -92 0
-52 -211 -44 0
146 194 190 0
55 126 -123 0
170 47 55 0
-223 141 -41 0
-29 113 -102 0
91 221 -116 0
-28 -37 -152 0
110 81 -6 0
-232 174 -239 0
-242 73 -226 0
-71 -221 -195 0
36 -149 -46 0
80 93 -144 0
-155 -57 -104 0
-58 -195 112 0
-26 -92 -181 0
-104 68 136 0
10 -24 56 0
103 -148 -83 0
-140 -3 -80 0
52 157 -222 0
-38 -135 -148 0
-218 -47 -194 0
59 14 89 0
124 12 37 0
113 -177 -111 0
-207 -13 242 0
-206 -25 55 0
-120 -9 -70 0
119 -126 -101 0
-110 232 121 0
-5 -225 -27 0
-220 12 38 0
-80 68 92 0
-121 234 -41 0
-123 -127 166 0
228 53 -85 0
-238 71 181 0
140 -92 127 0
-129 80 196 0
-150 87 -37 0
-162 -106 230 0
93 -41 -155 0
73 189 72 0
235 -100 -229 0
-90 201 102 0
-135 94 -14 0
231 -167 39 0
-180 170 -33 0
121 -166 -4 0
-88 192 -135 0
238 52 -113 0
-156 -234 -64 0
-54 101 65 0
-242 222 -231 0
201 52 -72 0
42 22 -218 0
-218 163 152 0
24 -110 87 0
237 -213 -206 0
-27 -178 38 0
-57 -93 203 0
201 213 174 0
-15 32 -41 0
234 -162 -8 0
-60 30 -230 0
-43 73 8 0
-32 -224 144 0
-144 70 -143 0
-181 31 -36 0
-8 -32 11 0
-242 226 -173 0
93 92 -99 0
-16 197 -207 0
-34 -43 92 0
101 131 194 0
-14 -7 -231 0
-100 -234 213 0
141 -117 235 0
-210 120 35 0
-168 69 18 0
-47 -30 123 0
-210 224 93 0
118 -228 232 0
199 232 95 0
187 -115 216 0
119 19 164 0
-165 77 -211 0
49 137 203 0
192 -35 -108 0
-214 -83 62 0
-45 -198 -102 0
166 -152 205 0
234 -241 141 0
-57 -181 5 0
52 -143 210 0
182 161 140 0
-152 38 -210 0
-196 38 -88 0
-182 -144 -58 0
-157 132 115 0
118 -144 -15 0
130 -95 -166 0
-18 237 -121 0
78 -10 -152 0
116 57 182 0
216 -52 141 0
-80 151 73 0
80 -224 -58 0
57 115 221 0
-132 62 -82 0
37 12 -197 0
-43 -84 -231 0
-195 96 176 0
70 206 -175 0
-236 -57 -186 0
163 -198 -110 0
-135 41 99 0
-77 206 -19 0
-25 -4 99 0
124 132 -23 0
-116 -55 217 0
238 195 -242 0
14 -168 58 0
-215 -74 190 0
-195 235 -119 0
142 -225 -35 0
60 -179 -65 0
185 -201 -233 0
-118 -123 96 0
-173 82 -43 0
34 179 -100 0
-29 24 166 0
-28 -227 -189 0
85 86 -53 0
2 -185 -169 0
203 -98 107 0
182 164 -79 0
-195 5 -207 0
2 134 37 0
-13 -145 -171 0
155 211 200 0
85 -89 -38 0
-120 -233 78 0
-88 216 -103 0
-19 82 192 0
-205 218 81 0
-187 -199 -189 0
-56 189 31 0
-32 225 -57 0
-132 -187 -168 0
149 -197 -27 0
239 -186 -97 0
60 -203 -48 0
-110 -222 207 0
-211 -70 231 0
35 -176 -241 0
84 220 126 0
139 37 -26 0
-135 120 -209 0
-164 101 -90 0
129 78 68 0
137 -149 99 0
-233 5 32 0
126 -177 185 0
-242 101 -234 0
-120 -167 160 0
-170 -220 134 0
93 101 134 0
116 145 -52 0
-29 220 99 0
31 -129 185 0
-6 -5 -118 0
100 -170 -222 0
118 17 -140 0
31 -163 -3 0
67 -23 133 0
140 166 -229 0
-226 70 -113 0
-96 91 130 0
121 -152 205 0
84 96 -32 0
190 -116 -163 0
137 133 52 0
127 222 -87 0
187 -78 214 0
2 -88 180 0
139 -19 187 0
-99 -83 221 0
183 23 -54 0
174 172 -200 0
74 -165 -13 0
229 132 -182 0
93 -20 -80 0
-143 -59 -209 0
-132 126 53 0
24 37 164 0
-107 228 -202 0
-62 130 103 0
234 82 158 0
-45 228 -242 0
189 3 -34 0
174 -184 -53 0
50 -182 -217 0
-84 -50 214 0
205 -36 107 0
21 71 213 0
-223 -231 -3 0
-92 2 227 0
-239 -49 -222 0
227 168 80 0
-85 -32 198 0
-129 -48 75 0
-41 126 151 0
-168 143 212 0
-105 -186 -10 0
100 220 -239 0
-29 90 -213 0
-3 73 -40 0
