p cnf 240 1020
-169 -139 94 0
-127 192 213 0
34 207 37 0
-104 73 228 0
187 -169 -78 0
-134 133 -148 0
-84 -109 -96 0
-9 -192 -232 0
-47 -4 37 0
-102 83 3 0
-161 223 -210 0
-117 160 68 0
197 -132 237 0
88 -207 -224 0
-172 220 -88 0
-110 165 7 0
118 -213 29 0
89 -79 116 0
222 -130 -47 0
-50 -37 216 0
-191 91 -135 0
-135 -13 -205 0
136 -43 -96 0
-220 -159 58 0
157 109 -220 0
-103 -76 -100 0
-120 83 35 0
182 -143 -172 0
18 16 -194 0
196 207 63 0
-152 50 -64 0
71 -36 -229 0
173 -39 -53 0
-3 -164 -31 0
-154 121 60 0
191 -157 -117 0
185 -88 225 0
-229 66 29 0
-182 -178 222 0
-27 -23 188 0
223 -218 171 0
-15 164 -27 0
-71 232 -65 0
65 -92 22 0
-150 -127 57 0
200 -212 -182 0
-156 133 -223 0
-152 215 204 0
-196 -62 -93 0
-209 101 -184 0
-219 118 147 0
-207 -161 191 0
-146 47 7 0
-106 -206 8 0
210 -175 89 0
201 -13 84 0
-204 -42 -54 0
190 -103 -193 0
220 -23 -86 0
59 -82 213 0
104 81 160 0
68 220 182 0
-93 194 41 0
-149 -80 233 0
144 -138 46 0
-24 -183 -154 0
-38 184 -88 0
-27 -217 189 0
-146 22 83 0
-141 40 171 0
-178 57 -63 0
38 4 -76 0
-215 -113 107 0
-48 -218 -133 0
-100 -192 -67 0
68 -111 95 0
-139 92 -20 0
-180 64 -204 0
201 130 -182 0
155 -59 -185 0
211 -58 120 0
113 -128 152 0
144 115 -167 0
38 -17 175 0
65 -230 187 0
196 35 -102 0
173 -78 -85 0
-105 -37 197 0
-2 157 14 0
-19 -158 -17 0
-64 154 199 0
-167 238 127 0
-104 147 180 0
-179 122 36 0
-46 182 111 0
103 -52 59 0
-116 193 -25 0
143 16 -175 0
136 4 -2 0
-146 -145 96 0
-159 -128 47 0
-175 -234 -40 0
-181 -217 -226 0
114 -8 -160 0
31 207 240 0
47 152 133 0
40 157 -236 0
213 100 -201 0
87 -64 94 0
204 -104 -11 0
-208 -216 -233 0
-218 134 -24 0
-148 -180 -137 0
73 83 -35 0
110 104 112 0
-83 144 -124 0
-198 -74 176 0
-23 -79 -229 0
165 81 -190 0
-99 49 -91 0
-224 -112 -190 0
-175 179 -12 0
229 -57 183 0
147 -164 157 0
177 -30 -237 0
-235 -213 -85 0
96 235 -215 0
-160 172 -67 0
222 -231 -161 0
-234 70 105 0
72 -216 231 0
3 -161 178 0
170 177 58 0
203 126 -18 0
-66 175 -184 0
73 -220 146 0
-227 52 23 0
10 121 -123 0
-48 22 196 0
95 -113 190 0
-240 -129 -197 0
-12 146 -4 0
236 -45 90 0
-98 40 -75 0
86 -169 185 0
63 155 -136 0
-82 15 -29 0
-159 185 44 0
231 27 -176 0
-209 -100 -197 0
10 -145 -140 0
240 -147 166 0
-234 -192 61 0
-163 117 -123 0
93 -58 -37 0
100 -66 226 0
77 -37 -11 0
-59 103 -33 0
108 227 -107 0
119 94 -87 0
-53 -63 -56 0
-187 -169 -201 0
196 203 105 0
-121 28 -139 0
199 223 160 0
228 -41 169 0
114 -7 178 0
-191 -175 -145 0
206 51 -39 0
34 -196 -239 0
-136 -189 -161 0
-22 -6 3 0
-24 81 239 0
55 -79 216 0
232 -213 115 0
26 -206 144 0
-31 137 -234 0
-121 -180 -72 0
170 -38 233 0
98 122 -123 0
210 -93 239 0
-6 -126 -172 0
227 -95 -18 0
-235 -39 -29 0
-163 -83 75 0
155 -205 127 0
44 -94 -218 0
232 -235 7 0
62 -180 79 0
-70 -192 195 0
-9 -34 -224 0
5 78 98 0
-178 173 -70 0
219 201 -109 0
185 67 142 0
116 -236 172 0
131 230 -30 0
63 20 -46 0
200 -23 -222 0
-88 223 -233 0
-224 -118 162 0
32 -15 -181 0
-48 24 -184 0
-60 54 -13 0
50 -122 -210 0
-48 -121 -74 0
114 48 130 0
-37 225 139 0
195 20 -49 0
-42 102 163 0
164 -74 -56 0
-136 -2 168 0
42 17 -16 0
159 -194 -210 0
-115 4 -191 0
-235 -93 179 0
68 187 -215 0
-95 128 -77 0
49 -59 151 0
-226 -119 -84 0
119 223 -231 0
-99 -108 7 0
223 162 -39 0
170 -232 45 0
5 101 121 0
-101 -41 78 0
-49 125 -156 0
41 -125 171 0
-83 181 -123 0
127 206 56 0
41 -87 -162 0
154 -34 -136 0
-222 33 95 0
95 107 64 0
-224 -232 81 0
-72 143 88 0
-33 -83 201 0
-152 157 -61 0
-228 5 -81 0
-160 83 -21 0
187 -69 -18 0
71 -183 37 0
58 -163 1 0
-38 201 70 0
-227 -138 -52 0
153 155 -31 0
135 -205 130 0
210 219 3 0
-8 167 165 0
-233 -38 -115 0
-195 81 28 0
156 117 -73 0
32 14 223 0
-213 -185 -97 0
-102 -46 -84 0
-83 -145 194 0
184 -183 34 0
-27 134 -42 0
92 -87 21 0
140 -16 -135 0
-141 211 23 0
234 223 -67 0
-7 14 165 0
-57 -195 60 0
-82 -83 100 0
196 -75 127 0
-18 11 -52 0
2 -90 -180 0
213 -43 -102 0
191 160 73 0
-214 52 194 0
-67 101 31 0
-167 172 132 0
-100 -206 28 0
146 -189 192 0
152 210 -78 0
-146 228 227 0
4 56 213 0
185 100 -84 0
-236 126 -123 0
-220 -64 -20 0
159 13 220 0
-114 98 187 0
-56 -166 49 0
72 -107 -168 0
78 -37 -68 0
-235 -53 -31 0
-8 226 239 0
-186 -61 -117 0
-70 6 -180 0
-56 17 102 0
213 120 -106 0
-169 -17 -198 0
52 206 -69 0
-61 -177 115 0
145 -214 220 0
-60 184 218 0
95 117 -211 0
-96 186 -142 0
105 45 149 0
-75 -38 -209 0
105 93 111 0
237 -92 -166 0
43 -228 -11 0
-38 -154 88 0
-205 -147 -36 0
102 21 -211 0
-11 134 -27 0
-43 -190 59 0
-84 -188 215 0
169 210 101 0
-193 28 -58 0
-230 -193 -49 0
205 28 -127 0
62 194 -104 0
209 49 7 0
212 199 -175 0
109 -92 170 0
100 -96 -54 0
163 158 152 0
82 90 -8 0
193 -138 -198 0
-90 176 -126 0
195 -232 23 0
-186 213 184 0
-87 62 155 0
199 -181 219 0
-176 -33 -152 0
114 18 -129 0
-206 237 -138 0
179 133 -126 0
11 75 154 0
215 20 51 0
-191 -207 168 0
-47 -58 88 0
-183 -114 207 0
-36 -34 190 0
-128 94 -204 0
-178 95 163 0
112 143 180 0
171 -92 -122 0
225 36 31 0
-51 115 169 0
18 203 -169 0
60 -52 38 0
-96 16 -131 0
150 -136 3 0
-63 221 123 0
123 -55 -26 0
220 206 -19 0
221 -195 18 0
-43 -64 161 0
58 -212 68 0
83 -200 -102 0
-101 116 -156 0
-123 158 -203 0
-163 41 -62 0
111 -154 -8 0
-199 38 198 0
-119 167 -207 0
155 -84 -236 0
-99 -194 -224 0
-175 -155 154 0
-24 -178 -126 0
17 65 162 0
-132 59 81 0
49 90 -79 0
72 -68 -154 0
-228 -202 36 0
-176 93 -183 0
149 -134 45 0
-64 -53 154 0
166 208 -128 0
-239 146 -118 0
-65 -32 97 0
49 208 -240 0
141 -150 211 0
-14 -110 161 0
100 81 -31 0
14 11 -217 0
-33 -201 25 0
229 170 -146 0
185 71 -73 0
-147 193 69 0
6 142 -150 0
-212 99 53 0
-147 190 158 0
25 64 -217 0
229 45 235 0
-79 -112 149 0
60 -26 217 0
-190 -228 99 0
-196 70 -53 0
135 -88 83 0
114 -156 -53 0
179 175 97 0
91 104 71 0
-154 -225 -121 0
166 -179 17 0
89 93 98 0
109 23 112 0
67 -123 -41 0
154 136 208 0
13 -195 59 0
179 -142 13 0
-39 76 -37 0
59 105 -80 0
-159 -14 -147 0
-190 -46 -74 0
-61 -5 207 0
-198 26 69 0
119 142 -195 0
48 -63 -202 0
-132 -209 6 0
43 13 -121 0
-214 95 147 0
182 -29 -183 0
18 97 -35 0
-174 -194 -102 0
120 -166 -134 0
192 -104 193 0
-220 128 -33 0
95 -216 77 0
77 96 7 0
-112 199 -164 0
-195 192 36 0
-5 231 59 0
-183 120 96 0
-14 -63 38 0
-14 -90 -120 0
20 -154 76 0
240 223 217 0
237 130 -43 0
144 70 -16 0
7 -115 104 0
84 -73 95 0
113 -195 -125 0
-141 187 -192 0
239 -212 -97 0
163 -69 37 0
99 71 101 0
-35 50 -108 0
-39 -110 141 0
17 -42 -220 0
-57 -120 235 0
-21 172 -118 0
-96 218 -121 0
-228 -231 209 0
-40 -171 -175 0
-207 153 200 0
-124 70 -85 0
104 -14 152 0
-38 143 -58 0
-119 -232 -40 0
106 191 103 0
-42 -160 -124 0
238 -228 15 0
-122 8 86 0
-226 -126 238 0
218 -61 74 0
154 84 152 0
204 189 -3 0
-240 204 207 0
121 -46 9 0
-176 -236 212 0
43 229 -80 0
-11 158 1 0
101 -211 -126 0
-135 19 213 0
-219 -67 41 0
156 58 177 0
-42 178 -122 0
-76 168 -181 0
-204 217 80 0
181 -40 10 0
28 115 -33 0
177 82 149 0
-239 -165 -172 0
-240 -182 54 0
101 50 -89 0
-65 100 -48 0
201 182 221 0
182 -109 -169 0
-180 48 2 0
-24 125 -225 0
62 132 155 0
-47 -107 -10 0
205 158 -96 0
129 -52 -55 0
-191 -130 -71 0
157 -238 -51 0
-117 -185 -152 0
12 -73 -86 0
-17 -122 -213 0
-156 -147 60 0
-68 77 229 0
232 149 66 0
57 211 116 0
-20 -206 -71 0
-5 -129 -223 0
-79 197 -154 0
137 170 142 0
100 -144 186 0
176 110 21 0
-26 34 -239 0
172 66 -107 0
-93 25 -196 0
141 164 18 0
240 -1 -62 0
-70 46 -30 0
214 200 -137 0
72 202 22 0
-207 -49 -140 0
-159 -206 204 0
-88 -42 134 0
237 194 162 0
-194 -111 27 0
-43 -49 -159 0
-18 -191 -59 0
143 -198 118 0
11 -10 116 0
-171 240 -96 0
81 -221 -119 0
-144 197 -30 0
142 -186 195 0
214 -164 82 0
10 220 -28 0
-36 -179 67 0
-218 106 20 0
190 -77 105 0
183 -24 -223 0
26 93 30 0
-228 -32 47 0
-13 -71 -80 0
-220 -21 -208 0
-140 77 -233 0
193 -239 11 0
86 69 -190 0
-151 2 -28 0
104 -139 -28 0
204 64 -21 0
-180 222 27 0
-182 -33 -44 0
-62 -105 -2 0
187 -199 216 0
55 -157 171 0
35 -104 152 0
158 220 -228 0
128 1 30 0
-33 -148 -48 0
64 -34 -183 0
188 -19 176 0
-29 -148 -1 0
4 106 28 0
-166 202 32 0
169 -133 -175 0
38 -53 -100 0
170 63 126 0
1 -111 -119 0
192 118 -135 0
37 -73 72 0
-196 136 -17 0
-116 -52 -177 0
70 -42 123 0
61 -166 -125 0
165 -240 -38 0
-177 -26 70 0
-104 -6 17 0
73 -65 -208 0
-220 -158 148 0
128 136 -1 0
-198 142 108 0
-28 188 -79 0
-70 -151 -52 0
145 -92 -25 0
84 12 220 0
86 -127 -59 0
27 145 230 0
-120 106 -137 0
141 -113 184 0
25 -10 66 0
-72 -165 151 0
237 -61 -157 0
-138 192 162 0
-71 -139 43 0
-216 -126 -210 0
-26 -23 129 0
-110 -179 -90 0
43 -7 190 0
-71 50 45 0
46 51 212 0
-170 116 -58 0
-186 -53 94 0
-176 -111 40 0
97 -2 -44 0
229 108 28 0
107 -28 112 0
-134 -183 -143 0
-152 231 235 0
-213 153 137 0
-45 157 215 0
-55 -238 188 0
-76 -97 -198 0
30 204 -178 0
-137 220 -29 0
183 -189 -210 0
60 205 -33 0
140 -227 19 0
138 -24 -67 0
-12 110 -126 0
57 179 163 0
-109 -185 163 0
-43 175 71 0
-3 -200 -7 0
186 -8 -22 0
-150 21 -22 0
-113 201 -229 0
-192 -155 7 0
-173 -30 -204 0
-67 41 -22 0
139 -123 74 0
45 -212 196 0
-98 121 11 0
13 1 170 0
-88 23 93 0
97 145 32 0
-59 83 -95 0
-201 -148 97 0
121 14 -105 0
143 -118 -159 0
-200 163 220 0
-69 -206 13 0
-136 -32 228 0
-161 -188 -67 0
-122 -128 226 0
-196 49 136 0
-173 -17 37 0
-44 -134 147 0
77 41 -6 0
-95 185 186 0
200 65 22 0
162 -100 -41 0
222 -224 -11 0
-95 88 -140 0
-234 187 6 0
203 -72 -221 0
130 235 236 0
-62 143 -179 0
85 -186 35 0
177 -88 -10 0
-75 62 -53 0
-91 -50 -213 0
32 102 187 0
25 183 -154 0
-32 140 -13 0
162 174 -51 0
58 11 226 0
-22 -236 -193 0
84 -100 25 0
-142 185 -222 0
-54 211 7 0
-200 -107 -29 0
4 63 -177 0
-68 -187 -73 0
233 -107 235 0
95 -157 203 0
155 -19 -207 0
74 28 -139 0
-88 -215 7 0
44 209 -186 0
38 19 62 0
24 -66 -240 0
34 -134 -138 0
-162 6 -200 0
-110 -112 203 0
-192 33 110 0
-50 224 15 0
-227 -156 23 0
176 -117 19 0
45 197 56 0
111 -131 141 0
-217 -125 109 0
54 -135 213 0
-62 -78 -230 0
200 50 -88 0
-141 189 229 0
-166 96 -158 0
116 -177 -178 0
145 149 -182 0
-240 -5 -183 0
-43 -104 -194 0
-108 197 -160 0
-76 -213 -142 0
174 -195 219 0
-138 -201 -94 0
38 85 -145 0
-80 -146 -159 0
228 -49 -28 0
-76 200 -37 0
-15 -105 160 0
102 164 -31 0
-165 114 -45 0
-186 59 -134 0
233 -93 167 0
230 -144 194 0
-1 -230 89 0
-37 231 178 0
206 -218 201 0
-174 38 -112 0
147 97 -89 0
-4 144 -124 0
226 -38 -197 0
237 193 31 0
-139 -39 -62 0
70 161 -231 0
123 -193 -58 0
-154 101 233 0
-214 196 -100 0
-209 -157 86 0
17 -97 136 0
-162 156 19 0
-199 46 -221 0
-114 165 106 0
164 72 70 0
73 -101 -42 0
-186 -104 -196 0
-89 -5 143 0
-161 -212 -122 0
-145 -180 239 0
-102 240 -135 0
51 -52 -117 0
-81 92 -184 0
-103 28 120 0
218 231 -233 0
1 98 -29 0
172 -82 -34 0
97 32 -49 0
-76 -79 68 0
149 83 -13 0
210 -25 111 0
-53 175 -65 0
238 -37 -232 0
44 -235 -48 0
-225 -126 229 0
-161 -50 67 0
-140 -88 -189 0
113 -60 -195 0
139 -63 -225 0
82 -105 8 0
-190 -6 -127 0
-110 104 175 0
-16 104 221 0
-200 207 -38 0
97 -139 37 0
-162 90 84 0
224 169 -94 0
240 -27 -176 0
-134 167 -198 0
-84 -146 -102 0
-143 152 137 0
-156 -139 -74 0
33 229 236 0
155 -178 187 0
-185 -154 184 0
-34 -77 -226 0
-142 162 17 0
-140 -130 118 0
168 113 -24 0
103 -115 -100 0
-48 7 -240 0
-158 -17 185 0
-137 -127 -99 0
-112 130 -128 0
82 -133 148 0
-165 137 -82 0
175 161 203 0
-8 -170 230 0
-187 -159 85 0
-32 43 -72 0
219 -96 69 0
152 -101 -51 0
-48 164 -64 0
-148 -217 69 0
-50 -140 231 0
-43 -67 21 0
-195 87 -185 0
-88 100 -43 0
57 -223 -178 0
-95 -27 58 0
182 -101 95 0
-68 99 218 0
125 198 175 0
79 -161 -160 0
-148 -20 -238 0
-43 -13 -51 0
69 204 10 0
23 84 76 0
28 -56 187 0
-108 -122 187 0
110 115 -218 0
-217 -39 179 0
198 203 23 0
-158 -136 -32 0
155 188 214 0
-34 -61 -217 0
103 42 -228 0
208 -199 -110 0
-150 130 107 0
77 -221 -43 0
190 -229 -172 0
-109 -94 -204 0
74 -46 -129 0
22 208 178 0
218 2 226 0
-164 59 -151 0
-34 -165 225 0
84 223 82 0
-9 134 -53 0
175 -26 -73 0
-99 151 159 0
218 177 -240 0
-113 185 75 0
-94 -217 -132 0
-74 -54 18 0
140 207 -209 0
33 -52 156 0
79 -160 -24 0
134 63 -107 0
-119 -89 7 0
181 -23 -171 0
123 -119 -83 0
69 -124 -35 0
84 -37 -159 0
-190 -117 -98 0
-101 -14 -141 0
166 -121 45 0
202 -184 -187 0
48 215 238 0
146 233 158 0
-26 -188 -110 0
-164 78 -61 0
-84 168 -94 0
229 -139 53 0
-32 -126 -186 0
57 42 207 0
86 -67 -222 0
157 -184 -186 0
218 221 150 0
18 -42 -15 0
195 135 234 0
230 -210 -84 0
133 -63 -34 0
26 -35 -204 0
14 -141 49 0
-142 -126 156 0
-129 130 222 0
-190 -185 181 0
61 164 -137 0
-193 203 209 0
78 61 -237 0
204 147 -83 0
-42 -54 -224 0
-6 200 -39 0
-151 192 90 0
-71 168 -223 0
-51 -234 2 0
176 -152 128 0
-13 163 39 0
-222 176 237 0
170 -36 -14 0
30 29 98 0
31 159 185 0
-191 -237 136 0
160 192 187 0
-98 -87 54 0
225 -171 208 0
201 73 -46 0
-175 -102 -161 0
-148 171 84 0
-33 5 -216 0
-90 185 -98 0
-168 -1 -207 0
-89 33 200 0
25 59 117 0
-92 141 -84 0
34 -55 -217 0
200 40 7 0
32 93 158 0
-16 43 -154 0
-22 111 110 0
-33 -221 73 0
82 -67 -222 0
-2 57 180 0
32 -5 -158 0
-145 235 -197 0
79 -160 -17 0
90 96 73 0
123 -216 28 0
-1 -29 -12 0
132 -32 -10 0
106 142 -59 0
24 126 42 0
-25 208 187 0
8 223 185 0
22 51 131 0
119 -183 -59 0
-74 93 136 0
-103 45 -30 0
-47 -90 137 0
181 110 153 0
-2 -86 -51 0
-156 -104 41 0
-66 215 112 0
-91 -150 -17 0
122 5 9 0
-26 80 85 0
-30 -13 115 0
-65 10 6 0
-197 -142 -18 0
182 162 179 0
-182 17 -82 0
-129 -10 -207 0
128 -238 -234 0
164 58 166 0
31 -209 107 0
-106 233 98 0
-13 125 -123 0
196 -83 -112 0
172 -152 153 0
157 -115 -207 0
-43 -227 111 0
-55 -120 -14 0
44 -28 -23 0
-169 -8 162 0
-239 -231 240 0
-95 -176 -180 0
227 200 150 0
-114 -6 -188 0
-75 -238 -170 0
-140 238 103 0
-195 -31 -116 0
-189 238 -60 0
-113 239 3 0
139 12 108 0
216 47 -49 0
-24 -196 -166 0
-128 -173 -210 0
-109 144 -232 0
-149 -172 239 0
12 151 -91 0
23 203 149 0
231 142 -165 0
-207 177 142 0
28 -200 -239 0
172 -165 -102 0
-238 -108 180 0
140 -64 185 0
116 131 80 0
87 -27 99 0
-195 63 -212 0
-1 -129 147 0
-103 -137 -179 0
36 -67 -102 0
114 155 -148 0
23 -77 -19 0
194 -186 -64 0
-209 -42 211 0
55 122 185 0
64 -12 236 0
-86 -200 213 0
72 193 -78 0
110 82 167 0
8 -202 146 0
-190 -124 -230 0
-33 -180 -67 0
-11 -140 -139 0
119 214 142 0
-106 -133 -218 0
160 48 236 0
-109 -158 170 0
-149 102 -179 0
-98 -146 80 0
-151 67 81 0
-35 185 -154 0
-123 93 -64 0
90 30 -19 0
-59 -214 -153 0
54 -108 -81 0
26 132 149 0
125 -2 -13 0
-207 -35 77 0
-76 -236 97 0
-232 190 221 0
13 84 -203 0
239 80 -81 0
88 138 -229 0
197 -82 -57 0
-109 34 -63 0
225 -98 -201 0
87 180 75 0
-156 89 -59 0
109 42 220 0
196 -205 -116 0
122 80 103 0
8 -27 21 0
-96 -234 -219 0
-133 164 -100 0
138 -4 28 0
183 -127 144 0
153 -226 92 0
206 -70 -115 0
-219 43 -164 0
236 43 -14 0
227 123 -88 0
-99 222 193 0
210 163 -44 0
-80 -33 32 0
84 -225 -65 0
-13 9 -174 0
74 167 120 0
