p cnf 238 1011
-35 146 217 0
-195 -116 121 0
8 -229 -214 0
-179 115 -69 0
231 -82 8 0
226 98 176 0
-57 -196 113 0
174 57 195 0
-215 235 -143 0
186 221 -76 0
-183 -129 109 0
73 -151 226 0
219 -9 123 0
-45 -94 -141 0
-23 -113 -170 0
-101 95 126 0
-218 -158 152 0
59 -4 -198 0
-104 -132 89 0
-69 -169 141 0
-220 -211 227 0
200 144 -53 0
-146 142 -52 0
-107 -89 -1 0
-118 -154 -8 0
-47 -221 -24 0
-66 9 -216 0
-116 4 194 0
160 48 89 0
-44 169 -70 0
128 122 30 0
49 -67 -28 0
-156 111 210 0
10 -185 42 0
-214 -57 162 0
-167 -8 -102 0
110 -16 -189 0
79 -19 220 0
41 107 -145 0
10 -152 210 0
-212 -223 200 0
-89 -26 -53 0
127 -27 171 0
-157 224 103 0
-84 208 145 0
173 -25 -215 0
215 -176 137 0
186 11 -22 0
-69 -195 86 0
88 -30 -75 0
184 -228 126 0
11 -105 19 0
-33 -88 30 0
-147 -141 58 0
-76 145 137 0
202 -12 212 0
-106 30 212 0
151 108 42 0
191 -217 -27 0
139 233 210 0
26 54 -167 0
-237 76 186 0
-17 -234 82 0
-56 -201 -159 0
121 -170 92 0
-64 93 -21 0
-24 -167 148 0
79 -11 -84 0
236 -78 -63 0
153 -24 63 0
69 142 -223 0
75 193 -203 0
-26 129 -200 0
45 46 -199 0
-79 -28 182 0
-229 -53 -37 0
-211 -232 -160 0
192 177 53 0
183 -221 -171 0
-115 -207 -111 0
-117 3 102 0
-204 166 -107 0
149 36 -152 0
102 145 103 0
-46 -136 82 0
176 164 -188 0
58 -183 -106 0
168 -71 -166 0
166 -225 -95 0
80 -77 178 0
-180 -189 -119 0
132 147 97 0
-146 185 194 0
-164 90 -99 0
-11 -135 24 0
-234 -22 -36 0
176 -180 -21 0
98 206 232 0
33 160 233 0
137 105 233 0
-192 -144 -2 0
8 161 156 0
38 -139 52 0
-175 -115 203 0
-92 -126 -108 0
-99 -53 73 0
-146 -192 -4 0
-167 -35 20 0
-129 174 92 0
184 116 -90 0
175 -147 127 0
-143 -1 -72 0
-187 131 -51 0
-105 191 183 0
159 -172 -136 0
149 -110 -104 0
180 -230 192 0
167 -75 162 0
200 102 201 0
199 155 -3 0
224 176 140 0
44 -120 -131 0
109 18 91 0
182 -42 177 0
78 -54 136 0
-20 -179 213 0
143 -189 -13 0
209 -143 70 0
-103 -45 124 0
-57 -67 157 0
231 -223 -160 0
64 -202 69 0
-149 114 -234 0
118 135 -42 0
93 80 193 0
175 79 18 0
26 -48 -12 0
56 -175 -9 0
228 -157 114 0
178 45 25 0
193 44 -60 0
-100 55 -116 0
233 -55 -21 0
-82 228 99 0
-41 226 -212 0
-4 -100 -38 0
66 -34 -21 0
-10 138 -16 0
200 31 -111 0
-191 72 176 0
-85 -162 69 0
-16 151 -202 0
-144 -164 -134 0
-138 52 -183 0
-183 -69 191 0
46 25 39 0
12 -14 164 0
95 -26 81 0
-33 -230 102 0
189 -135 70 0
9 221 -99 0
-67 -204 98 0
-109 216 -63 0
-131 -201 101 0
-168 -209 -115 0
-149 -180 -134 0
75 191 41 0
-105 89 -33 0
167 137 81 0
192 134 129 0
187 84 -201 0
123 -117 234 0
-228 -237 21 0
-135 126 148 0
147 -192 -87 0
-104 79 -119 0
-8 -38 -65 0
-48 -197 -106 0
-140 175 69 0
147 135 -165 0
-165 215 -45 0
-231 217 -125 0
-154 127 222 0
-94 -140 -234 0
209 216 -66 0
98 132 -225 0
204 149 -150 0
-2 -49 -77 0
-211 -78 -132 0
-140 166 147 0
210 -238 133 0
78 34 -130 0
42 65 -163 0
10 -95 -108 0
172 5 231 0
-69 119 -70 0
124 -197 87 0
-38 -107 5 0
33 -151 202 0
132 74 190 0
-234 125 -56 0
184 109 24 0
187 7 -27 0
103 167 186 0
-14 141 -56 0
-238 27 -189 0
31 68 -176 0
220 -13 -202 0
32 -172 -115 0
30 156 -219 0
-180 52 -43 0
138 -74 -223 0
-55 -202 195 0
194 -187 -169 0
15 -139 -161 0
59 131 71 0
-66 -50 -105 0
-137 -214 156 0
123 179 79 0
121 -62 -87 0
-149 178 116 0
-177 -35 166 0
160 127 123 0
-66 -58 23 0
45 176 -30 0
227 -79 -109 0
211 158 -57 0
-221 -88 69 0
85 -89 36 0
147 -11 89 0
-82 64 69 0
-237 -103 96 0
174 -85 -71 0
-29 -91 -237 0
156 238 -223 0
-186 -136 122 0
230 57 -162 0
29 45 -62 0
-65 138 70 0
182 -27 -191 0
-140 -143 -217 0
-159 79 -115 0
-37 174 -226 0
-197 86 -94 0
98 -214 113 0
-76 -171 176 0
-3 236 -209 0
226 26 -118 0
71 95 105 0
-200 10 166 0
-29 -151 -36 0
-201 146 233 0
-179 63 -238 0
92 224 -41 0
109 -226 -187 0
-198 235 15 0
194 -209 -88 0
133 37 -15 0
140 165 -161 0
-150 6 -123 0
45 102 -184 0
-85 169 63 0
-127 -167 198 0
-103 -139 -31 0
39 -4 -97 0
47 -118 -197 0
-235 -40 135 0
-102 -208 163 0
-179 101 2 0
41 170 -46 0
143 42 45 0
-61 -204 -11 0
-177 157 168 0
-120 31 -146 0
165 -209 -123 0
6 -220 80 0
-35 -144 -182 0
-129 -206 -107 0
-207 52 127 0
146 -72 217 0
93 87 238 0
72 -145 -120 0
-58 -51 19 0
110 184 224 0
-183 51 -22 0
15 8 192 0
-153 34 173 0
98 -36 74 0
192 -215 46 0
-138 75 -23 0
-6 -75 -205 0
-194 114 -66 0
-41 -208 34 0
-219 -112 -163 0
-102 -32 -234 0
-99 -170 -237 0
186 1 -184 0
-97 170 124 0
-43 172 236 0
71 197 170 0
213 214 -34 0
-126 -55 -101 0
233 -63 -25 0
-214 -114 49 0
131 99 -134 0
-151 194 199 0
12 214 -157 0
-74 121 -12 0
-145 -102 -24 0
166 78 -101 0
-13 142 233 0
192 -82 -204 0
-72 -17 222 0
101 -134 203 0
-136 4 26 0
142 9 -164 0
22 -217 -139 0
-1 237 42 0
149 38 -151 0
-211 -93 88 0
17 -197 -162 0
-102 -141 73 0
44 232 -69 0
165 68 61 0
-189 -132 78 0
140 -20 -141 0
-35 -10 114 0
81 -107 -192 0
-180 170 -162 0
-51 -60 -30 0
185 69 -118 0
-86 238 -158 0
3 4 -126 0
-3 -59 196 0
136 52 -54 0
84 -101 168 0
160 77 149 0
-6 -27 -169 0
-111 212 -182 0
-50 -180 -132 0
-145 -170 -141 0
-190 148 232 0
-214 69 -173 0
102 156 -139 0
12 201 -118 0
-54 -180 -122 0
99 221 -112 0
-235 -3 66 0
4 -84 -87 0
13 54 -184 0
-166 17 33 0
-88 -60 7 0
-197 -194 130 0
-97 108 -238 0
-19 -51 -105 0
-162 58 -63 0
-185 77 -191 0
176 -79 114 0
95 -112 142 0
-155 -29 -150 0
110 3 216 0
-129 -57 -223 0
238 68 112 0
132 -131 -42 0
-18 56 -1 0
6 -17 15 0
-5 157 3 0
149 141 134 0
-228 -16 62 0
84 105 -31 0
195 48 -56 0
-16 204 -81 0
-39 -60 12 0
-23 -114 52 0
-52 14 -192 0
-191 -57 -74 0
185 9 186 0
-117 -196 224 0
174 99 -23 0
225 -88 234 0
-198 -205 -112 0
86 194 213 0
102 121 131 0
-146 -33 224 0
166 161 -39 0
61 92 166 0
-20 -110 -40 0
217 -40 176 0
-9 -12 -186 0
94 -130 -223 0
208 171 -96 0
-9 -70 227 0
64 -215 218 0
-198 -13 60 0
25 -35 58 0
-59 -20 -80 0
-154 232 -222 0
149 -132 122 0
206 -19 71 0
54 6 -42 0
-22 -157 61 0
-165 168 -51 0
-214 172 181 0
-123 -142 10 0
90 35 -125 0
-146 -172 -80 0
-124 87 -107 0
166 220 83 0
-81 -68 -214 0
107 4 76 0
111 238 -157 0
145 127 148 0
37 -91 -25 0
-224 50 102 0
-179 63 -10 0
10 133 130 0
-134 204 44 0
-142 186 -144 0
-96 -14 216 0
-177 -166 170 0
224 92 -50 0
-94 146 87 0
-3 -148 60 0
-42 -131 54 0
68 36 -44 0
159 -136 79 0
131 -142 -80 0
152 -216 -202 0
209 -88 -31 0
46 -159 228 0
214 53 -14 0
36 114 -102 0
-10 -151 50 0
-75 234 -90 0
47 225 -199 0
238 141 59 0
191 27 -100 0
120 85 -130 0
-227 228 158 0
-38 90 -36 0
-56 228 -117 0
109 14 117 0
72 -102 4 0
-183 78 -165 0
45 26 126 0
32 -138 -82 0
-144 163 -88 0
-119 -83 -125 0
43 -62 138 0
-200 83 232 0
8 -89 -93 0
-105 -54 -202 0
81 -102 179 0
-167 -231 -90 0
-57 60 17 0
224 -76 25 0
-105 -40 -29 0
193 88 -37 0
-180 134 71 0
138 -42 38 0
-35 -218 -86 0
153 36 6 0
128 -152 126 0
121 -145 37 0
190 90 17 0
51 -185 62 0
179 -78 11 0
-28 209 206 0
-27 -115 -184 0
124 171 72 0
193 -99 -106 0
51 17 -38 0
117 201 158 0
211 210 -135 0
107 -34 221 0
-107 200 88 0
177 236 134 0
-221 63 163 0
5 94 -34 0
-124 -18 193 0
-121 140 -155 0
-181 -101 165 0
-134 98 123 0
-54 152 157 0
28 -227 -233 0
-1 132 111 0
157 16 -147 0
172 -153 8 0
69 -233 223 0
-137 -15 69 0
76 -150 -152 0
195 -171 -178 0
123 193 -162 0
127 211 -229 0
-80 203 -139 0
36 117 -218 0
84 -139 -96 0
-198 -69 160 0
-166 -69 -186 0
29 -26 -176 0
147 -238 -228 0
151 224 -174 0
-207 11 -31 0
42 137 -39 0
-230 177 216 0
148 -208 64 0
-6 -111 157 0
216 -208 18 0
164 -211 194 0
91 131 234 0
208 16 -94 0
-57 -66 -40 0
-28 -123 -176 0
-121 -80 -68 0
230 -54 -205 0
202 -197 98 0
220 127 -166 0
52 133 -86 0
-46 -128 -92 0
-160 111 -103 0
161 103 223 0
158 -111 164 0
-109 68 -131 0
-40 144 -183 0
-174 -7 -144 0
117 68 193 0
181 -98 -8 0
-144 -101 -126 0
97 206 -16 0
231 117 -22 0
18 19 212 0
138 121 -159 0
-228 161 -91 0
-64 163 -198 0
-213 -138 -83 0
-65 224 169 0
42 22 -67 0
-235 204 219 0
181 55 -41 0
-180 -230 80 0
204 167 -115 0
-31 -135 119 0
-43 118 111 0
55 133 -156 0
69 74 -13 0
113 11 53 0
64 173 -223 0
-35 -160 153 0
187 8 -144 0
235 3 58 0
-234 148 22 0
140 -72 -91 0
136 137 120 0
-101 -35 -231 0
217 82 -38 0
187 -214 -152 0
205 177 9 0
70 152 12 0
77 -233 133 0
-134 190 137 0
-43 -14 169 0
-206 -26 215 0
-45 -210 -56 0
-222 170 104 0
-122 127 -132 0
64 217 114 0
206 -145 59 0
-176 223 154 0
225 -151 -127 0
-161 166 196 0
-24 228 -86 0
197 -158 217 0
-80 184 114 0
129 66 31 0
161 132 170 0
-117 -96 103 0
-207 -174 121 0
-126 145 22 0
10 69 -80 0
-87 5 -117 0
-89 189 217 0
-51 101 40 0
45 -82 -2 0
10 -215 -109 0
113 -49 215 0
103 131 -110 0
-21 121 -214 0
-42 -214 -140 0
-45 69 106 0
182 117 223 0
-139 -140 208 0
6 -219 169 0
-68 198 205 0
124 29 57 0
-25 120 141 0
70 -14 136 0
153 113 29 0
168 -100 75 0
-90 -110 111 0
-69 48 39 0
-97 -18 -162 0
-46 -38 196 0
53 -123 -181 0
183 42 -198 0
166 -103 109 0
20 7 95 0
131 -151 -70 0
-231 88 21 0
218 143 191 0
7 47 -72 0
-131 -70 179 0
-99 223 27 0
-188 81 -35 0
164 -15 -75 0
5 -178 -159 0
-81 236 -227 0
-188 14 -150 0
167 25 -109 0
-226 -5 -3 0
196 90 -45 0
-207 74 -133 0
-202 -146 -121 0
66 -190 -174 0
152 106 234 0
-238 -235 -143 0
-165 -21 155 0
-126 -187 9 0
163 69 100 0
-31 -214 172 0
-39 120 62 0
209 -25 187 0
107 38 -209 0
-100 204 -158 0
-126 225 -222 0
-212 -132 203 0
-220 19 162 0
148 77 -26 0
190 -72 -141 0
201 -66 -118 0
-79 -165 -171 0
-7 94 224 0
173 40 -71 0
85 237 -159 0
59 -182 216 0
-88 110 231 0
76 -184 132 0
189 -62 -97 0
198 130 -36 0
214 71 26 0
-171 -113 211 0
-56 70 -94 0
146 194 39 0
200 153 -138 0
205 -45 179 0
-110 177 -95 0
-49 28 2 0
-204 -106 88 0
104 194 158 0
206 -237 -217 0
198 -73 -184 0
44 -160 194 0
-76 109 103 0
-151 -54 216 0
-26 -105 -235 0
-169 -127 -56 0
-221 77 -76 0
78 -122 35 0
-11 -80 129 0
68 -41 -75 0
-67 -100 -226 0
-127 185 44 0
-53 82 14 0
-28 159 161 0
-62 -160 91 0
22 9 86 0
207 -226 -191 0
219 203 110 0
-100 -223 139 0
-112 233 -13 0
-125 -154 53 0
-163 -104 222 0
214 -125 -222 0
56 66 -200 0
-47 -159 65 0
77 -202 -14 0
33 11 -173 0
1 187 -98 0
-52 -19 -45 0
136 -146 -185 0
172 -2 -136 0
-215 -45 -14 0
49 41 -57 0
219 -171 -65 0
-64 -172 -75 0
183 -162 -69 0
57 -198 221 0
71 44 -189 0
156 57 100 0
-11 -197 -9 0
78 -218 -94 0
-74 235 -72 0
201 149 92 0
199 127 54 0
-216 -2 -213 0
209 -224 -233 0
185 125 195 0
-228 25 21 0
-94 146 -110 0
14 -112 -156 0
-123 99 45 0
89 -83 130 0
-162 124 145 0
64 -196 -34 0
-2 96 -74 0
169 -174 -38 0
69 -196 -208 0
42 155 -107 0
-45 155 17 0
39 -63 -231 0
-141 -67 -17 0
-96 21 -92 0
-111 -201 143 0
33 -142 -151 0
-95 -58 114 0
-146 47 14 0
-159 119 42 0
-40 -118 -52 0
33 -156 57 0
-59 -217 109 0
184 -16 97 0
77 -160 54 0
108 -63 -166 0
-42 -214 5 0
-220 -110 8 0
-61 133 -3 0
-227 52 -166 0
-35 113 216 0
130 98 -178 0
99 215 124 0
124 -51 -44 0
-165 -179 -77 0
-157 -148 -207 0
-73 32 198 0
-81 23 -204 0
-105 185 -36 0
-233 -36 82 0
192 -49 229 0
101 -94 3 0
161 -2 25 0
-180 -45 77 0
85 234 -86 0
182 -47 154 0
-205 152 135 0
-164 64 -226 0
-106 -89 70 0
29 79 -178 0
112 -146 -68 0
-122 182 -196 0
228 -227 -90 0
-64 143 165 0
-36 157 178 0
-156 227 177 0
72 70 -91 0
-17 205 117 0
176 35 101 0
75 227 122 0
178 -218 14 0
-119 1 202 0
189 -158 -100 0
47 -186 -56 0
-89 -23 32 0
-85 -204 -144 0
-111 147 -92 0
-91 -220 -48 0
117 -111 56 0
-101 215 -95 0
-167 19 -49 0
89 178 -31 0
106 172 -174 0
-12 42 -216 0
69 164 -151 0
116 146 233 0
-127 -207 -93 0
-145 -112 34 0
-125 -17 -152 0
48 16 181 0
182 135 -167 0
-1 57 131 0
141 -24 205 0
86 -188 36 0
-153 -223 11 0
188 163 -81 0
-221 100 -79 0
150 176 167 0
32 -162 -3 0
88 -55 233 0
-143 -147 183 0
-188 -8 -19 0
-53 185 76 0
156 -237 -171 0
57 64 236 0
-230 -219 -91 0
-193 31 55 0
-187 -214 46 0
-96 -135 -37 0
12 -150 -199 0
120 168 237 0
-116 112 -172 0
-220 56 197 0
229 -122 209 0
71 -223 114 0
175 -174 -229 0
-59 131 232 0
182 -228 -211 0
102 58 -35 0
98 -204 237 0
-73 39 -31 0
177 -108 142 0
-230 -198 43 0
15 92 -166 0
206 -116 9 0
-192 -71 44 0
-210 23 230 0
-83 87 214 0
-68 -5 140 0
-212 -119 -209 0
216 -100 28 0
-99 23 128 0
-105 121 223 0
-121 65 111 0
133 -76 201 0
-234 -236 -90 0
22 -117 -93 0
-26 223 53 0
-198 21 -54 0
17 -126 145 0
-134 198 164 0
174 213 -37 0
-39 -54 -220 0
-203 -36 22 0
157 -164 -192 0
176 112 -121 0
-97 10 71 0
-231 -100 114 0
58 -171 -40 0
199 -126 -85 0
-225 17 -170 0
19 1 220 0
221 34 -141 0
-87 175 -72 0
41 105 -21 0
-129 -237 27 0
-105 197 233 0
172 -232 42 0
180 206 159 0
14 -12 -74 0
7 217 -38 0
238 218 147 0
-74 231 -8 0
-45 -63 152 0
209 -51 146 0
25 -21 77 0
35 -237 -78 0
31 -77 134 0
164 -193 26 0
165 2 225 0
-54 -123 -224 0
202 137 -165 0
51 184 -94 0
93 18 -179 0
116 -114 -210 0
168 165 -115 0
-67 -34 212 0
-195 227 -107 0
223 -189 -165 0
214 -99 -50 0
-96 -233 -60 0
153 -72 79 0
-4 -90 -187 0
-216 -126 117 0
58 154 90 0
36 192 -97 0
10 -219 -141 0
-74 180 -96 0
226 3 219 0
-172 216 195 0
-214 -181 -110 0
-132 57 44 0
-52 190 -29 0
156 186 -34 0
147 224 48 0
131 36 -37 0
-127 -219 231 0
177 208 -188 0
110 -208 -222 0
-75 67 -84 0
56 81 190 0
-200 37 -21 0
-17 -110 -94 0
-104 157 -84 0
-136 -35 -5 0
-156 153 221 0
-220 45 233 0
-92 164 190 0
93 95 80 0
227 -160 -180 0
-65 164 -231 0
-155 13 76 0
-115 38 -228 0
-225 -60 -86 0
94 44 203 0
-158 3 -220 0
125 185 101 0
136 -39 83 0
201 228 -229 0
-115 -222 -236 0
-218 16 -49 0
125 75 -10 0
82 104 208 0
222 -114 229 0
-173 96 -9 0
-28 155 -209 0
-86 29 103 0
37 -127 -15 0
-228 2 229 0
81 39 53 0
-57 -166 -197 0
-16 -155 117 0
121 -94 110 0
-15 -84 -27 0
85 -37 232 0
125 120 -82 0
-187 -140 -215 0
34 229 -107 0
-98 -25 -109 0
-1 -144 174 0
-166 -85 32 0
175 -102 -20 0
-116 -77 191 0
140 156 -35 0
-86 72 -161 0
-25 200 -43 0
87 -11 42 0
141 -145 103 0
-35 -62 -224 0
33 -74 157 0
-37 -195 -38 0
-237 8 -214 0
-202 -94 -121 0
230 -62 -182 0
-7 197 -135 0
-211 212 199 0
-227 -134 120 0
-230 -32 -225 0
238 24 183 0
174 -130 -113 0
212 125 218 0
-20 184 46 0
229 190 20 0
178 94 48 0
-142 -232 117 0
121 39 51 0
-44 -101 -161 0
78 -191 197 0
-24 230 209 0
-1 -203 214 0
33 73 237 0
214 1 -225 0
-2 15 238 0
-57 135 193 0
-39 -219 52 0
44 -113 83 0
-74 -149 -33 0
134 -14 63 0
82 -29 172 0
108 68 30 0
48 15 84 0
8 -186 -75 0
128 87 -151 0
23 202 95 0
-115 89 158 0
61 23 188 0
-213 -153 -93 0
-234 162 80 0
-105 -55 -119 0
112 19 98 0
-155 131 186 0
28 228 -169 0
228 55 151 0
-164 -51 227 0
-83 207 28 0
162 -84 145 0
128 -131 194 0
158 40 73 0
-51 195 -32 0
132 210 137 0
-101 89 159 0
-169 -24 -196 0
52 -125 122 0
-224 -3 -136 0
-188 -67 7 0
44 157 67 0
234 -14 125 0
232 -87 -234 0
-88 -214 -92 0
-62 -105 36 0
187 12 64 0
28 232 -198 0
-221 138 -194 0
-235 59 90 0
217 -120 33 0
