c description: Tseitin formula on random 3-regular graph on 600 verices, with odd charge
c generator: CNFgen (0.9.6)
c copyright: (C) 2012-2026 Massimo Lauria <massimo.lauria@uniroma1.it>
c url: https://massimolauria.net/cnfgen
c command line: cnfgen tseitin 600 3
c
p cnf 900 2400
1 2 -3 0
1 -2 3 0
-1 2 3 0
-1 -2 -3 0
4 5 6 0
4 -5 -6 0
-4 5 -6 0
-4 -5 6 0
7 8 -9 0
7 -8 9 0
-7 8 9 0
-7 -8 -9 0
10 11 12 0
10 -11 -12 0
-10 11 -12 0
-10 -11 12 0
13 14 15 0
13 -14 -15 0
-13 14 -15 0
-13 -14 15 0
16 17 18 0
16 -17 -18 0
-16 17 -18 0
-16 -17 18 0
19 20 21 0
19 -20 -21 0
-19 20 -21 0
-19 -20 21 0
22 23 -24 0
22 -23 24 0
-22 23 24 0
-22 -23 -24 0
25 26 -27 0
25 -26 27 0
-25 26 27 0
-25 -26 -27 0
28 29 30 0
28 -29 -30 0
-28 29 -30 0
-28 -29 30 0
31 32 -33 0
31 -32 33 0
-31 32 33 0
-31 -32 -33 0
34 35 -36 0
34 -35 36 0
-34 35 36 0
-34 -35 -36 0
37 38 -39 0
37 -38 39 0
-37 38 39 0
-37 -38 -39 0
40 41 42 0
40 -41 -42 0
-40 41 -42 0
-40 -41 42 0
43 44 45 0
43 -44 -45 0
-43 44 -45 0
-43 -44 45 0
46 47 48 0
46 -47 -48 0
-46 47 -48 0
-46 -47 48 0
49 50 51 0
49 -50 -51 0
-49 50 -51 0
-49 -50 51 0
52 53 54 0
52 -53 -54 0
-52 53 -54 0
-52 -53 54 0
55 56 -57 0
55 -56 57 0
-55 56 57 0
-55 -56 -57 0
19 58 59 0
19 -58 -59 0
-19 58 -59 0
-19 -58 59 0
4 60 61 0
4 -60 -61 0
-4 60 -61 0
-4 -60 61 0
62 63 64 0
62 -63 -64 0
-62 63 -64 0
-62 -63 64 0
7 65 66 0
7 -65 -66 0
-7 65 -66 0
-7 -65 66 0
67 68 -69 0
67 -68 69 0
-67 68 69 0
-67 -68 -69 0
70 71 72 0
70 -71 -72 0
-70 71 -72 0
-70 -71 72 0
73 74 75 0
73 -74 -75 0
-73 74 -75 0
-73 -74 75 0
76 77 -78 0
76 -77 78 0
-76 77 78 0
-76 -77 -78 0
79 80 81 0
79 -80 -81 0
-79 80 -81 0
-79 -80 81 0
46 82 83 0
46 -82 -83 0
-46 82 -83 0
-46 -82 83 0
84 85 86 0
84 -85 -86 0
-84 85 -86 0
-84 -85 86 0
87 88 89 0
87 -88 -89 0
-87 88 -89 0
-87 -88 89 0
90 91 -92 0
90 -91 92 0
-90 91 92 0
-90 -91 -92 0
93 94 -95 0
93 -94 95 0
-93 94 95 0
-93 -94 -95 0
79 96 97 0
79 -96 -97 0
-79 96 -97 0
-79 -96 97 0
98 99 100 0
98 -99 -100 0
-98 99 -100 0
-98 -99 100 0
101 102 103 0
101 -102 -103 0
-101 102 -103 0
-101 -102 103 0
93 104 105 0
93 -104 -105 0
-93 104 -105 0
-93 -104 105 0
106 107 -108 0
106 -107 108 0
-106 107 108 0
-106 -107 -108 0
109 110 111 0
109 -110 -111 0
-109 110 -111 0
-109 -110 111 0
112 113 114 0
112 -113 -114 0
-112 113 -114 0
-112 -113 114 0
115 116 117 0
115 -116 -117 0
-115 116 -117 0
-115 -116 117 0
49 118 -119 0
49 -118 119 0
-49 118 119 0
-49 -118 -119 0
96 120 121 0
96 -120 -121 0
-96 120 -121 0
-96 -120 121 0
43 122 123 0
43 -122 -123 0
-43 122 -123 0
-43 -122 123 0
124 125 126 0
124 -125 -126 0
-124 125 -126 0
-124 -125 126 0
127 128 -129 0
127 -128 129 0
-127 128 129 0
-127 -128 -129 0
130 131 132 0
130 -131 -132 0
-130 131 -132 0
-130 -131 132 0
25 133 134 0
25 -133 -134 0
-25 133 -134 0
-25 -133 134 0
135 136 137 0
135 -136 -137 0
-135 136 -137 0
-135 -136 137 0
138 139 -140 0
138 -139 140 0
-138 139 140 0
-138 -139 -140 0
141 142 143 0
141 -142 -143 0
-141 142 -143 0
-141 -142 143 0
101 144 -145 0
101 -144 145 0
-101 144 145 0
-101 -144 -145 0
146 147 148 0
146 -147 -148 0
-146 147 -148 0
-146 -147 148 0
55 149 150 0
55 -149 -150 0
-55 149 -150 0
-55 -149 150 0
151 152 -153 0
151 -152 153 0
-151 152 153 0
-151 -152 -153 0
154 155 156 0
154 -155 -156 0
-154 155 -156 0
-154 -155 156 0
157 158 159 0
157 -158 -159 0
-157 158 -159 0
-157 -158 159 0
58 90 160 0
58 -90 -160 0
-58 90 -160 0
-58 -90 160 0
161 162 163 0
161 -162 -163 0
-161 162 -163 0
-161 -162 163 0
164 165 -166 0
164 -165 166 0
-164 165 166 0
-164 -165 -166 0
122 167 -168 0
122 -167 168 0
-122 167 168 0
-122 -167 -168 0
115 169 170 0
115 -169 -170 0
-115 169 -170 0
-115 -169 170 0
171 172 -173 0
171 -172 173 0
-171 172 173 0
-171 -172 -173 0
174 175 176 0
174 -175 -176 0
-174 175 -176 0
-174 -175 176 0
52 177 -178 0
52 -177 178 0
-52 177 178 0
-52 -177 -178 0
87 179 180 0
87 -179 -180 0
-87 179 -180 0
-87 -179 180 0
181 182 -183 0
181 -182 183 0
-181 182 183 0
-181 -182 -183 0
184 185 -186 0
184 -185 186 0
-184 185 186 0
-184 -185 -186 0
187 188 189 0
187 -188 -189 0
-187 188 -189 0
-187 -188 189 0
190 191 -192 0
190 -191 192 0
-190 191 192 0
-190 -191 -192 0
5 193 194 0
5 -193 -194 0
-5 193 -194 0
-5 -193 194 0
195 196 197 0
195 -196 -197 0
-195 196 -197 0
-195 -196 197 0
198 199 200 0
198 -199 -200 0
-198 199 -200 0
-198 -199 200 0
201 202 203 0
201 -202 -203 0
-201 202 -203 0
-201 -202 203 0
204 205 206 0
204 -205 -206 0
-204 205 -206 0
-204 -205 206 0
1 207 208 0
1 -207 -208 0
-1 207 -208 0
-1 -207 208 0
209 210 211 0
209 -210 -211 0
-209 210 -211 0
-209 -210 211 0
59 212 213 0
59 -212 -213 0
-59 212 -213 0
-59 -212 213 0
127 214 215 0
127 -214 -215 0
-127 214 -215 0
-127 -214 215 0
216 217 218 0
216 -217 -218 0
-216 217 -218 0
-216 -217 218 0
102 219 -220 0
102 -219 220 0
-102 219 220 0
-102 -219 -220 0
221 222 -223 0
221 -222 223 0
-221 222 223 0
-221 -222 -223 0
224 225 -226 0
224 -225 226 0
-224 225 226 0
-224 -225 -226 0
227 228 229 0
227 -228 -229 0
-227 228 -229 0
-227 -228 229 0
230 231 232 0
230 -231 -232 0
-230 231 -232 0
-230 -231 232 0
207 233 -234 0
207 -233 234 0
-207 233 234 0
-207 -233 -234 0
235 236 237 0
235 -236 -237 0
-235 236 -237 0
-235 -236 237 0
187 238 239 0
187 -238 -239 0
-187 238 -239 0
-187 -238 239 0
171 240 -241 0
171 -240 241 0
-171 240 241 0
-171 -240 -241 0
242 243 244 0
242 -243 -244 0
-242 243 -244 0
-242 -243 244 0
138 245 -246 0
138 -245 246 0
-138 245 246 0
-138 -245 -246 0
167 247 -248 0
167 -247 248 0
-167 247 248 0
-167 -247 -248 0
249 250 -251 0
249 -250 251 0
-249 250 251 0
-249 -250 -251 0
252 253 -254 0
252 -253 254 0
-252 253 254 0
-252 -253 -254 0
255 256 -257 0
255 -256 257 0
-255 256 257 0
-255 -256 -257 0
258 259 260 0
258 -259 -260 0
-258 259 -260 0
-258 -259 260 0
204 261 -262 0
204 -261 262 0
-204 261 262 0
-204 -261 -262 0
263 264 265 0
263 -264 -265 0
-263 264 -265 0
-263 -264 265 0
266 267 268 0
266 -267 -268 0
-266 267 -268 0
-266 -267 268 0
269 270 -271 0
269 -270 271 0
-269 270 271 0
-269 -270 -271 0
272 273 274 0
272 -273 -274 0
-272 273 -274 0
-272 -273 274 0
275 276 277 0
275 -276 -277 0
-275 276 -277 0
-275 -276 277 0
278 279 -280 0
278 -279 280 0
-278 279 280 0
-278 -279 -280 0
281 282 -283 0
281 -282 283 0
-281 282 283 0
-281 -282 -283 0
284 285 286 0
284 -285 -286 0
-284 285 -286 0
-284 -285 286 0
10 287 -288 0
10 -287 288 0
-10 287 288 0
-10 -287 -288 0
2 212 289 0
2 -212 -289 0
-2 212 -289 0
-2 -212 289 0
198 290 -291 0
198 -290 291 0
-198 290 291 0
-198 -290 -291 0
62 292 -293 0
62 -292 293 0
-62 292 293 0
-62 -292 -293 0
294 295 -296 0
294 -295 296 0
-294 295 296 0
-294 -295 -296 0
56 297 -298 0
56 -297 298 0
-56 297 298 0
-56 -297 -298 0
219 299 300 0
219 -299 -300 0
-219 299 -300 0
-219 -299 300 0
301 302 -303 0
301 -302 303 0
-301 302 303 0
-301 -302 -303 0
304 305 -306 0
304 -305 306 0
-304 305 306 0
-304 -305 -306 0
307 308 309 0
307 -308 -309 0
-307 308 -309 0
-307 -308 309 0
310 311 -312 0
310 -311 312 0
-310 311 312 0
-310 -311 -312 0
313 314 315 0
313 -314 -315 0
-313 314 -315 0
-313 -314 315 0
53 316 -317 0
53 -316 317 0
-53 316 317 0
-53 -316 -317 0
318 319 -320 0
318 -319 320 0
-318 319 320 0
-318 -319 -320 0
84 321 -322 0
84 -321 322 0
-84 321 322 0
-84 -321 -322 0
323 324 -325 0
323 -324 325 0
-323 324 325 0
-323 -324 -325 0
326 327 328 0
326 -327 -328 0
-326 327 -328 0
-326 -327 328 0
329 330 331 0
329 -330 -331 0
-329 330 -331 0
-329 -330 331 0
31 332 333 0
31 -332 -333 0
-31 332 -333 0
-31 -332 333 0
334 335 336 0
334 -335 -336 0
-334 335 -336 0
-334 -335 336 0
157 337 338 0
157 -337 -338 0
-157 337 -338 0
-157 -337 338 0
339 340 -341 0
339 -340 341 0
-339 340 341 0
-339 -340 -341 0
342 343 344 0
342 -343 -344 0
-342 343 -344 0
-342 -343 344 0
345 346 -347 0
345 -346 347 0
-345 346 347 0
-345 -346 -347 0
252 278 348 0
252 -278 -348 0
-252 278 -348 0
-252 -278 348 0
349 350 -351 0
349 -350 351 0
-349 350 351 0
-349 -350 -351 0
352 353 354 0
352 -353 -354 0
-352 353 -354 0
-352 -353 354 0
355 356 -357 0
355 -356 357 0
-355 356 357 0
-355 -356 -357 0
133 358 -359 0
133 -358 359 0
-133 358 359 0
-133 -358 -359 0
360 361 362 0
360 -361 -362 0
-360 361 -362 0
-360 -361 362 0
363 364 -365 0
363 -364 365 0
-363 364 365 0
-363 -364 -365 0
73 366 367 0
73 -366 -367 0
-73 366 -367 0
-73 -366 367 0
368 369 -370 0
368 -369 370 0
-368 369 370 0
-368 -369 -370 0
371 372 -373 0
371 -372 373 0
-371 372 373 0
-371 -372 -373 0
201 366 -368 0
201 -366 368 0
-201 366 368 0
-201 -366 -368 0
374 375 -376 0
374 -375 376 0
-374 375 376 0
-374 -375 -376 0
28 377 -378 0
28 -377 378 0
-28 377 378 0
-28 -377 -378 0
245 379 -380 0
245 -379 380 0
-245 379 380 0
-245 -379 -380 0
381 382 383 0
381 -382 -383 0
-381 382 -383 0
-381 -382 383 0
214 275 384 0
214 -275 -384 0
-214 275 -384 0
-214 -275 384 0
205 385 -386 0
205 -385 386 0
-205 385 386 0
-205 -385 -386 0
387 388 -389 0
387 -388 389 0
-387 388 389 0
-387 -388 -389 0
355 390 391 0
355 -390 -391 0
-355 390 -391 0
-355 -390 391 0
294 392 393 0
294 -392 -393 0
-294 392 -393 0
-294 -392 393 0
195 394 -395 0
195 -394 395 0
-195 394 395 0
-195 -394 -395 0
272 396 -397 0
272 -396 397 0
-272 396 397 0
-272 -396 -397 0
398 399 -400 0
398 -399 400 0
-398 399 400 0
-398 -399 -400 0
401 402 403 0
401 -402 -403 0
-401 402 -403 0
-401 -402 403 0
130 404 405 0
130 -404 -405 0
-130 404 -405 0
-130 -404 405 0
91 406 407 0
91 -406 -407 0
-91 406 -407 0
-91 -406 407 0
408 409 -410 0
408 -409 410 0
-408 409 410 0
-408 -409 -410 0
227 411 412 0
227 -411 -412 0
-227 411 -412 0
-227 -411 412 0
287 413 414 0
287 -413 -414 0
-287 413 -414 0
-287 -413 414 0
415 416 417 0
415 -416 -417 0
-415 416 -417 0
-415 -416 417 0
16 160 -418 0
16 -160 418 0
-16 160 418 0
-16 -160 -418 0
392 419 -420 0
392 -419 420 0
-392 419 420 0
-392 -419 -420 0
299 421 422 0
299 -421 -422 0
-299 421 -422 0
-299 -421 422 0
85 423 424 0
85 -423 -424 0
-85 423 -424 0
-85 -423 424 0
425 426 -427 0
425 -426 427 0
-425 426 427 0
-425 -426 -427 0
230 428 429 0
230 -428 -429 0
-230 428 -429 0
-230 -428 429 0
430 431 432 0
430 -431 -432 0
-430 431 -432 0
-430 -431 432 0
433 434 435 0
433 -434 -435 0
-433 434 -435 0
-433 -434 435 0
436 437 -438 0
436 -437 438 0
-436 437 438 0
-436 -437 -438 0
263 318 439 0
263 -318 -439 0
-263 318 -439 0
-263 -318 439 0
440 441 442 0
440 -441 -442 0
-440 441 -442 0
-440 -441 442 0
443 444 445 0
443 -444 -445 0
-443 444 -445 0
-443 -444 445 0
221 446 -447 0
221 -446 447 0
-221 446 447 0
-221 -446 -447 0
448 449 -450 0
448 -449 450 0
-448 449 450 0
-448 -449 -450 0
451 452 453 0
451 -452 -453 0
-451 452 -453 0
-451 -452 453 0
281 454 455 0
281 -454 -455 0
-281 454 -455 0
-281 -454 455 0
433 456 -457 0
433 -456 457 0
-433 456 457 0
-433 -456 -457 0
116 235 458 0
116 -235 -458 0
-116 235 -458 0
-116 -235 458 0
290 413 -459 0
290 -413 459 0
-290 413 459 0
-290 -413 -459 0
228 460 461 0
228 -460 -461 0
-228 460 -461 0
-228 -460 461 0
193 462 -463 0
193 -462 463 0
-193 462 463 0
-193 -462 -463 0
124 464 -465 0
124 -464 465 0
-124 464 465 0
-124 -464 -465 0
466 467 -468 0
466 -467 468 0
-466 467 468 0
-466 -467 -468 0
67 469 470 0
67 -469 -470 0
-67 469 -470 0
-67 -469 470 0
471 472 473 0
471 -472 -473 0
-471 472 -473 0
-471 -472 473 0
47 474 -475 0
47 -474 475 0
-47 474 475 0
-47 -474 -475 0
476 477 478 0
476 -477 -478 0
-476 477 -478 0
-476 -477 478 0
29 471 479 0
29 -471 -479 0
-29 471 -479 0
-29 -471 479 0
242 419 480 0
242 -419 -480 0
-242 419 -480 0
-242 -419 480 0
481 482 483 0
481 -482 -483 0
-481 482 -483 0
-481 -482 483 0
154 484 485 0
154 -484 -485 0
-154 484 -485 0
-154 -484 485 0
34 313 -486 0
34 -313 486 0
-34 313 486 0
-34 -313 -486 0
472 487 488 0
472 -487 -488 0
-472 487 -488 0
-472 -487 488 0
489 490 -491 0
489 -490 491 0
-489 490 491 0
-489 -490 -491 0
216 492 -493 0
216 -492 493 0
-216 492 493 0
-216 -492 -493 0
494 495 -496 0
494 -495 496 0
-494 495 496 0
-494 -495 -496 0
446 497 -498 0
446 -497 498 0
-446 497 498 0
-446 -497 -498 0
26 464 499 0
26 -464 -499 0
-26 464 -499 0
-26 -464 499 0
500 501 502 0
500 -501 -502 0
-500 501 -502 0
-500 -501 502 0
503 504 505 0
503 -504 -505 0
-503 504 -505 0
-503 -504 505 0
506 507 508 0
506 -507 -508 0
-506 507 -508 0
-506 -507 508 0
181 428 489 0
181 -428 -489 0
-181 428 -489 0
-181 -428 489 0
486 509 -510 0
486 -509 510 0
-486 509 510 0
-486 -509 -510 0
511 512 -513 0
511 -512 513 0
-511 512 513 0
-511 -512 -513 0
408 514 515 0
408 -514 -515 0
-408 514 -515 0
-408 -514 515 0
20 511 -516 0
20 -511 516 0
-20 511 516 0
-20 -511 -516 0
517 518 -519 0
517 -518 519 0
-517 518 519 0
-517 -518 -519 0
161 520 -521 0
161 -520 521 0
-161 520 521 0
-161 -520 -521 0
276 522 -523 0
276 -522 523 0
-276 522 523 0
-276 -522 -523 0
249 307 -524 0
249 -307 524 0
-249 307 524 0
-249 -307 -524 0
109 492 -525 0
109 -492 525 0
-109 492 525 0
-109 -492 -525 0
526 527 -528 0
526 -527 528 0
-526 527 528 0
-526 -527 -528 0
240 297 -529 0
240 -297 529 0
-240 297 529 0
-240 -297 -529 0
269 339 530 0
269 -339 -530 0
-269 339 -530 0
-269 -339 530 0
398 531 -532 0
398 -531 532 0
-398 531 532 0
-398 -531 -532 0
506 533 534 0
506 -533 -534 0
-506 533 -534 0
-506 -533 534 0
517 535 536 0
517 -535 -536 0
-517 535 -536 0
-517 -535 536 0
222 481 537 0
222 -481 -537 0
-222 481 -537 0
-222 -481 537 0
538 539 -540 0
538 -539 540 0
-538 539 540 0
-538 -539 -540 0
139 541 -542 0
139 -541 542 0
-139 541 542 0
-139 -541 -542 0
543 544 545 0
543 -544 -545 0
-543 544 -545 0
-543 -544 545 0
112 546 547 0
112 -546 -547 0
-112 546 -547 0
-112 -546 547 0
54 184 -448 0
54 -184 448 0
-54 184 448 0
-54 -184 -448 0
185 548 -549 0
185 -548 549 0
-185 548 549 0
-185 -548 -549 0
430 550 -551 0
430 -550 551 0
-430 550 551 0
-430 -550 -551 0
522 552 553 0
522 -552 -553 0
-522 552 -553 0
-522 -552 553 0
358 554 -555 0
358 -554 555 0
-358 554 555 0
-358 -554 -555 0
48 431 556 0
48 -431 -556 0
-48 431 -556 0
-48 -431 556 0
224 557 558 0
224 -557 -558 0
-224 557 -558 0
-224 -557 558 0
559 560 -561 0
559 -560 561 0
-559 560 561 0
-559 -560 -561 0
518 550 -562 0
518 -550 562 0
-518 550 562 0
-518 -550 -562 0
393 563 564 0
393 -563 -564 0
-393 563 -564 0
-393 -563 564 0
236 342 565 0
236 -342 -565 0
-236 342 -565 0
-236 -342 565 0
535 566 -567 0
535 -566 567 0
-535 566 567 0
-535 -566 -567 0
487 568 -569 0
487 -568 569 0
-487 568 569 0
-487 -568 -569 0
493 570 -571 0
493 -570 571 0
-493 570 571 0
-493 -570 -571 0
155 572 -573 0
155 -572 573 0
-155 572 573 0
-155 -572 -573 0
574 575 576 0
574 -575 -576 0
-574 575 -576 0
-574 -575 576 0
577 578 -579 0
577 -578 579 0
-577 578 579 0
-577 -578 -579 0
440 580 581 0
440 -580 -581 0
-440 580 -581 0
-440 -580 581 0
128 582 583 0
128 -582 -583 0
-128 582 -583 0
-128 -582 583 0
13 584 -585 0
13 -584 585 0
-13 584 585 0
-13 -584 -585 0
209 466 507 0
209 -466 -507 0
-209 466 -507 0
-209 -466 507 0
151 557 -586 0
151 -557 586 0
-151 557 586 0
-151 -557 -586 0
60 182 208 0
60 -182 -208 0
-60 182 -208 0
-60 -182 208 0
396 474 587 0
396 -474 -587 0
-396 474 -587 0
-396 -474 587 0
588 589 590 0
588 -589 -590 0
-588 589 -590 0
-588 -589 590 0
432 460 -519 0
432 -460 519 0
-432 460 519 0
-432 -460 -519 0
577 591 592 0
577 -591 -592 0
-577 591 -592 0
-577 -591 592 0
284 593 -594 0
284 -593 594 0
-284 593 594 0
-284 -593 -594 0
188 321 -595 0
188 -321 595 0
-188 321 595 0
-188 -321 -595 0
261 596 -597 0
261 -596 597 0
-261 596 597 0
-261 -596 -597 0
82 443 598 0
82 -443 -598 0
-82 443 -598 0
-82 -443 598 0
441 599 600 0
441 -599 -600 0
-441 599 -600 0
-441 -599 600 0
141 601 602 0
141 -601 -602 0
-141 601 -602 0
-141 -601 602 0
554 603 -604 0
554 -603 604 0
-554 603 604 0
-554 -603 -604 0
530 546 -605 0
530 -546 605 0
-530 546 605 0
-530 -546 -605 0
164 606 607 0
164 -606 -607 0
-164 606 -607 0
-164 -606 607 0
146 210 -608 0
146 -210 608 0
-146 210 608 0
-146 -210 -608 0
609 610 611 0
609 -610 -611 0
-609 610 -611 0
-609 -610 611 0
168 340 580 0
168 -340 -580 0
-168 340 -580 0
-168 -340 580 0
165 183 520 0
165 -183 -520 0
-165 183 -520 0
-165 -183 520 0
377 469 -612 0
377 -469 612 0
-377 469 612 0
-377 -469 -612 0
613 614 -615 0
613 -614 615 0
-613 614 615 0
-613 -614 -615 0
225 266 -319 0
225 -266 319 0
-225 266 319 0
-225 -266 -319 0
135 238 616 0
135 -238 -616 0
-135 238 -616 0
-135 -238 616 0
142 617 -618 0
142 -617 618 0
-142 617 618 0
-142 -617 -618 0
514 619 -620 0
514 -619 620 0
-514 619 620 0
-514 -619 -620 0
588 621 622 0
588 -621 -622 0
-588 621 -622 0
-588 -621 622 0
295 623 624 0
295 -623 -624 0
-295 623 -624 0
-295 -623 624 0
349 625 -626 0
349 -625 626 0
-349 625 626 0
-349 -625 -626 0
37 627 628 0
37 -627 -628 0
-37 627 -628 0
-37 -627 628 0
118 599 629 0
118 -599 -629 0
-118 599 -629 0
-118 -599 629 0
308 462 -630 0
308 -462 630 0
-308 462 630 0
-308 -462 -630 0
390 631 632 0
390 -631 -632 0
-390 631 -632 0
-390 -631 632 0
250 633 634 0
250 -633 -634 0
-250 633 -634 0
-250 -633 634 0
80 635 -636 0
80 -635 636 0
-80 635 636 0
-80 -635 -636 0
637 638 639 0
637 -638 -639 0
-637 638 -639 0
-637 -638 639 0
106 640 -641 0
106 -640 641 0
-106 640 641 0
-106 -640 -641 0
360 642 -643 0
360 -642 643 0
-360 642 643 0
-360 -642 -643 0
488 644 -645 0
488 -644 645 0
-488 644 645 0
-488 -644 -645 0
131 646 647 0
131 -646 -647 0
-131 646 -647 0
-131 -646 647 0
140 548 648 0
140 -548 -648 0
-140 548 -648 0
-140 -548 648 0
559 649 -650 0
559 -649 650 0
-559 649 650 0
-559 -649 -650 0
174 345 651 0
174 -345 -651 0
-174 345 -651 0
-174 -345 651 0
652 653 654 0
652 -653 -654 0
-652 653 -654 0
-652 -653 654 0
166 436 655 0
166 -436 -655 0
-166 436 -655 0
-166 -436 655 0
289 629 656 0
289 -629 -656 0
-289 629 -656 0
-289 -629 656 0
454 476 657 0
454 -476 -657 0
-454 476 -657 0
-454 -476 657 0
352 608 -658 0
352 -608 658 0
-352 608 658 0
-352 -608 -658 0
409 659 -660 0
409 -659 660 0
-409 659 660 0
-409 -659 -660 0
350 661 -662 0
350 -661 662 0
-350 661 662 0
-350 -661 -662 0
363 663 664 0
363 -663 -664 0
-363 663 -664 0
-363 -663 664 0
196 665 666 0
196 -665 -666 0
-196 665 -666 0
-196 -665 666 0
543 667 668 0
543 -667 -668 0
-543 667 -668 0
-543 -667 668 0
189 314 -669 0
189 -314 669 0
-189 314 669 0
-189 -314 -669 0
22 649 -670 0
22 -649 670 0
-22 649 670 0
-22 -649 -670 0
671 672 -673 0
671 -672 673 0
-671 672 673 0
-671 -672 -673 0
172 270 674 0
172 -270 -674 0
-172 270 -674 0
-172 -270 674 0
635 675 676 0
635 -675 -676 0
-635 675 -676 0
-635 -675 676 0
677 678 679 0
677 -678 -679 0
-677 678 -679 0
-677 -678 679 0
310 503 -680 0
310 -503 680 0
-310 503 680 0
-310 -503 -680 0
665 681 682 0
665 -681 -682 0
-665 681 -682 0
-665 -681 682 0
104 675 683 0
104 -675 -683 0
-104 675 -683 0
-104 -675 683 0
179 646 -684 0
179 -646 684 0
-179 646 684 0
-179 -646 -684 0
617 625 -656 0
617 -625 656 0
-617 625 656 0
-617 -625 -656 0
323 685 -686 0
323 -685 686 0
-323 685 686 0
-323 -685 -686 0
76 379 687 0
76 -379 -687 0
-76 379 -687 0
-76 -379 687 0
456 688 689 0
456 -688 -689 0
-456 688 -689 0
-456 -688 689 0
233 581 -652 0
233 -581 652 0
-233 581 652 0
-233 -581 -652 0
361 364 570 0
361 -364 -570 0
-361 364 -570 0
-361 -364 570 0
255 560 690 0
255 -560 -690 0
-255 560 -690 0
-255 -560 690 0
556 640 691 0
556 -640 -691 0
-556 640 -691 0
-556 -640 691 0
326 692 -693 0
326 -692 693 0
-326 692 693 0
-326 -692 -693 0
324 411 -694 0
324 -411 694 0
-324 411 694 0
-324 -411 -694 0
231 676 -695 0
231 -676 695 0
-231 676 695 0
-231 -676 -695 0
169 606 -669 0
169 -606 669 0
-169 606 669 0
-169 -606 -669 0
591 696 -697 0
591 -696 697 0
-591 696 697 0
-591 -696 -697 0
698 699 -700 0
698 -699 700 0
-698 699 700 0
-698 -699 -700 0
334 701 -702 0
334 -701 702 0
-334 701 702 0
-334 -701 -702 0
23 74 703 0
23 -74 -703 0
-23 74 -703 0
-23 -74 703 0
35 371 704 0
35 -371 -704 0
-35 371 -704 0
-35 -371 704 0
704 705 706 0
704 -705 -706 0
-704 705 -706 0
-704 -705 706 0
616 633 707 0
616 -633 -707 0
-616 633 -707 0
-616 -633 707 0
256 607 -671 0
256 -607 671 0
-256 607 671 0
-256 -607 -671 0
8 147 524 0
8 -147 -524 0
-8 147 -524 0
-8 -147 524 0
621 708 -709 0
621 -708 709 0
-621 708 709 0
-621 -708 -709 0
399 509 -710 0
399 -509 710 0
-399 509 710 0
-399 -509 -710 0
711 712 713 0
711 -712 -713 0
-711 712 -713 0
-711 -712 713 0
356 412 714 0
356 -412 -714 0
-356 412 -714 0
-356 -412 714 0
202 651 715 0
202 -651 -715 0
-202 651 -715 0
-202 -651 715 0
716 717 718 0
716 -717 -718 0
-716 717 -718 0
-716 -717 718 0
401 719 -720 0
401 -719 720 0
-401 719 720 0
-401 -719 -720 0
653 721 -722 0
653 -721 722 0
-653 721 722 0
-653 -721 -722 0
149 723 724 0
149 -723 -724 0
-149 723 -724 0
-149 -723 724 0
504 716 -725 0
504 -716 725 0
-504 716 725 0
-504 -716 -725 0
726 727 728 0
726 -727 -728 0
-726 727 -728 0
-726 -727 728 0
298 729 -730 0
298 -729 730 0
-298 729 730 0
-298 -729 -730 0
223 731 -732 0
223 -731 732 0
-223 731 732 0
-223 -731 -732 0
70 271 -525 0
70 -271 525 0
-70 271 525 0
-70 -271 -525 0
521 721 733 0
521 -721 -733 0
-521 721 -733 0
-521 -721 733 0
415 734 735 0
415 -734 -735 0
-415 734 -735 0
-415 -734 735 0
304 316 -586 0
304 -316 586 0
-304 316 586 0
-304 -316 -586 0
301 708 -736 0
301 -708 736 0
-301 708 736 0
-301 -708 -736 0
562 737 738 0
562 -737 -738 0
-562 737 -738 0
-562 -737 738 0
739 740 741 0
739 -740 -741 0
-739 740 -741 0
-739 -740 741 0
623 742 743 0
623 -742 -743 0
-623 742 -743 0
-623 -742 743 0
512 516 744 0
512 -516 -744 0
-512 516 -744 0
-512 -516 744 0
38 563 745 0
38 -563 -745 0
-38 563 -745 0
-38 -563 745 0
50 746 747 0
50 -746 -747 0
-50 746 -747 0
-50 -746 747 0
291 538 748 0
291 -538 -748 0
-291 538 -748 0
-291 -538 748 0
609 749 750 0
609 -749 -750 0
-609 749 -750 0
-609 -749 750 0
647 751 752 0
647 -751 -752 0
-647 751 -752 0
-647 -751 752 0
325 425 753 0
325 -425 -753 0
-325 425 -753 0
-325 -425 753 0
402 533 -711 0
402 -533 711 0
-402 533 711 0
-402 -533 -711 0
475 729 754 0
475 -729 -754 0
-475 729 -754 0
-475 -729 754 0
755 756 757 0
755 -756 -757 0
-755 756 -757 0
-755 -756 757 0
341 479 -758 0
341 -479 758 0
-341 479 758 0
-341 -479 -758 0
416 759 -760 0
416 -759 760 0
-416 759 760 0
-416 -759 -760 0
571 761 762 0
571 -761 -762 0
-571 761 -762 0
-571 -761 762 0
213 541 763 0
213 -541 -763 0
-213 541 -763 0
-213 -541 763 0
595 764 -765 0
595 -764 765 0
-595 764 765 0
-595 -764 -765 0
572 766 767 0
572 -766 -767 0
-572 766 -767 0
-572 -766 767 0
40 457 -768 0
40 -457 768 0
-40 457 768 0
-40 -457 -768 0
285 357 -465 0
285 -357 465 0
-285 357 465 0
-285 -357 -465 0
113 746 -769 0
113 -746 769 0
-113 746 769 0
-113 -746 -769 0
730 753 755 0
730 -753 -755 0
-730 753 -755 0
-730 -753 755 0
190 627 -770 0
190 -627 770 0
-190 627 770 0
-190 -627 -770 0
77 694 -769 0
77 -694 769 0
-77 694 769 0
-77 -694 -769 0
449 771 772 0
449 -771 -772 0
-449 771 -772 0
-449 -771 772 0
494 766 -773 0
494 -766 773 0
-494 766 773 0
-494 -766 -773 0
539 739 774 0
539 -739 -774 0
-539 739 -774 0
-539 -739 774 0
670 715 775 0
670 -715 -775 0
-670 715 -775 0
-670 -715 775 0
125 315 776 0
125 -315 -776 0
-125 315 -776 0
-125 -315 776 0
279 777 -778 0
279 -777 778 0
-279 777 778 0
-279 -777 -778 0
27 423 -779 0
27 -423 779 0
-27 423 779 0
-27 -423 -779 0
780 781 782 0
780 -781 -782 0
-780 781 -782 0
-780 -781 782 0
346 783 -784 0
346 -783 784 0
-346 783 784 0
-346 -783 -784 0
526 544 -785 0
526 -544 785 0
-526 544 785 0
-526 -544 -785 0
44 374 -751 0
44 -374 751 0
-44 374 751 0
-44 -374 -751 0
292 375 -622 0
292 -375 622 0
-292 375 622 0
-292 -375 -622 0
267 786 787 0
267 -786 -787 0
-267 786 -787 0
-267 -786 787 0
329 637 -788 0
329 -637 788 0
-329 637 788 0
-329 -637 -788 0
232 499 667 0
232 -499 -667 0
-232 499 -667 0
-232 -499 667 0
30 789 -790 0
30 -789 790 0
-30 789 790 0
-30 -789 -790 0
191 450 -791 0
191 -450 791 0
-191 450 791 0
-191 -450 -791 0
490 644 792 0
490 -644 -792 0
-490 644 -792 0
-490 -644 792 0
162 771 793 0
162 -771 -793 0
-162 771 -793 0
-162 -771 793 0
215 510 -794 0
215 -510 794 0
-215 510 794 0
-215 -510 -794 0
305 406 -523 0
305 -406 523 0
-305 406 523 0
-305 -406 -523 0
795 796 -797 0
795 -796 797 0
-795 796 797 0
-795 -796 -797 0
68 642 -798 0
68 -642 798 0
-68 642 798 0
-68 -642 -798 0
107 698 791 0
107 -698 -791 0
-107 698 -791 0
-107 -698 791 0
495 788 799 0
495 -788 -799 0
-495 788 -799 0
-495 -788 799 0
194 684 759 0
194 -684 -759 0
-194 684 -759 0
-194 -684 759 0
542 657 -800 0
542 -657 800 0
-542 657 800 0
-542 -657 -800 0
343 458 574 0
343 -458 -574 0
-343 458 -574 0
-343 -458 574 0
69 332 731 0
69 -332 -731 0
-69 332 -731 0
-69 -332 731 0
417 505 -589 0
417 -505 589 0
-417 505 589 0
-417 -505 -589 0
243 549 -794 0
243 -549 794 0
-243 549 794 0
-243 -549 -794 0
529 732 800 0
529 -732 -800 0
-529 732 -800 0
-529 -732 800 0
801 802 803 0
801 -802 -803 0
-801 802 -803 0
-801 -802 803 0
61 681 804 0
61 -681 -804 0
-61 681 -804 0
-61 -681 804 0
451 565 -805 0
451 -565 805 0
-451 565 805 0
-451 -565 -805 0
403 631 770 0
403 -631 -770 0
-403 631 -770 0
-403 -631 770 0
806 807 -808 0
806 -807 808 0
-806 807 808 0
-806 -807 -808 0
628 672 776 0
628 -672 -776 0
-628 672 -776 0
-628 -672 776 0
129 661 -734 0
129 -661 734 0
-129 661 734 0
-129 -661 -734 0
94 575 749 0
94 -575 -749 0
-94 575 -749 0
-94 -575 749 0
482 809 810 0
482 -809 -810 0
-482 809 -810 0
-482 -809 810 0
71 691 -811 0
71 -691 811 0
-71 691 811 0
-71 -691 -811 0
568 812 813 0
568 -812 -813 0
-568 812 -813 0
-568 -812 813 0
582 814 -815 0
582 -814 815 0
-582 814 815 0
-582 -814 -815 0
619 816 -817 0
619 -816 817 0
-619 816 817 0
-619 -816 -817 0
220 688 818 0
220 -688 -818 0
-220 688 -818 0
-220 -688 818 0
677 812 -819 0
677 -812 819 0
-677 812 819 0
-677 -812 -819 0
650 719 -820 0
650 -719 820 0
-650 719 820 0
-650 -719 -820 0
81 258 -576 0
81 -258 576 0
-81 258 576 0
-81 -258 -576 0
32 311 -821 0
32 -311 821 0
-32 311 821 0
-32 -311 -821 0
513 596 634 0
513 -596 -634 0
-513 596 -634 0
-513 -596 634 0
682 822 -823 0
682 -822 823 0
-682 822 823 0
-682 -822 -823 0
78 641 -824 0
78 -641 824 0
-78 641 824 0
-78 -641 -824 0
117 180 -603 0
117 -180 603 0
-117 180 603 0
-117 -180 -603 0
98 120 663 0
98 -120 -663 0
-98 120 -663 0
-98 -120 663 0
259 367 -692 0
259 -367 692 0
-259 367 692 0
-259 -367 -692 0
397 825 -826 0
397 -825 826 0
-397 825 826 0
-397 -825 -826 0
144 381 827 0
144 -381 -827 0
-144 381 -827 0
-144 -381 827 0
382 780 827 0
382 -780 -827 0
-382 780 -827 0
-382 -780 827 0
217 578 744 0
217 -578 -744 0
-217 578 -744 0
-217 -578 744 0
277 613 -690 0
277 -613 690 0
-277 613 690 0
-277 -613 -690 0
264 268 699 0
264 -268 -699 0
-264 268 -699 0
-264 -268 699 0
286 500 -806 0
286 -500 806 0
-286 500 806 0
-286 -500 -806 0
664 828 829 0
664 -828 -829 0
-664 828 -829 0
-664 -828 829 0
246 695 830 0
246 -695 -830 0
-246 695 -830 0
-246 -695 830 0
726 798 831 0
726 -798 -831 0
-726 798 -831 0
-726 -798 831 0
444 564 674 0
444 -564 -674 0
-444 564 -674 0
-444 -564 674 0
558 825 832 0
558 -825 -832 0
-558 825 -832 0
-558 -825 832 0
158 605 -833 0
158 -605 833 0
-158 605 833 0
-158 -605 -833 0
41 710 -834 0
41 -710 834 0
-41 710 834 0
-41 -710 -834 0
347 404 -835 0
347 -404 835 0
-347 404 835 0
-347 -404 -835 0
296 353 407 0
296 -353 -407 0
-296 353 -407 0
-296 -353 407 0
722 777 836 0
722 -777 -836 0
-722 777 -836 0
-722 -777 836 0
837 838 839 0
837 -838 -839 0
-837 838 -839 0
-837 -838 839 0
114 840 841 0
114 -840 -841 0
-114 840 -841 0
-114 -840 841 0
683 814 -842 0
683 -814 842 0
-683 814 842 0
-683 -814 -842 0
302 335 -843 0
302 -335 843 0
-302 335 843 0
-302 -335 -843 0
206 792 844 0
206 -792 -844 0
-206 792 -844 0
-206 -792 844 0
447 666 845 0
447 -666 -845 0
-447 666 -845 0
-447 -666 845 0
265 805 -846 0
265 -805 846 0
-265 805 846 0
-265 -805 -846 0
678 847 -848 0
678 -847 848 0
-678 847 848 0
-678 -847 -848 0
531 566 -849 0
531 -566 849 0
-531 566 849 0
-531 -566 -849 0
282 685 -850 0
282 -685 850 0
-282 685 850 0
-282 -685 -850 0
197 636 659 0
197 -636 -659 0
-197 636 -659 0
-197 -636 659 0
327 385 -400 0
327 -385 400 0
-327 385 400 0
-327 -385 -400 0
218 253 -508 0
218 -253 508 0
-218 253 508 0
-218 -253 -508 0
330 437 662 0
330 -437 -662 0
-330 437 -662 0
-330 -437 662 0
537 584 -816 0
537 -584 816 0
-537 584 816 0
-537 -584 -816 0
247 775 795 0
247 -775 -795 0
-247 775 -795 0
-247 -775 795 0
86 405 851 0
86 -405 -851 0
-86 405 -851 0
-86 -405 851 0
579 620 -689 0
579 -620 689 0
-579 620 689 0
-579 -620 -689 0
42 175 484 0
42 -175 -484 0
-42 175 -484 0
-42 -175 484 0
251 552 763 0
251 -552 -763 0
-251 552 -763 0
-251 -552 763 0
386 421 614 0
386 -421 -614 0
-386 421 -614 0
-386 -421 614 0
65 593 836 0
65 -593 -836 0
-65 593 -836 0
-65 -593 836 0
163 497 -852 0
163 -497 852 0
-163 497 852 0
-163 -497 -852 0
156 626 727 0
156 -626 -727 0
-156 626 -727 0
-156 -626 727 0
3 387 455 0
3 -387 -455 0
-3 387 -455 0
-3 -387 455 0
376 824 853 0
376 -824 -853 0
-376 824 -853 0
-376 -824 853 0
226 426 -597 0
226 -426 597 0
-226 426 597 0
-226 -426 -597 0
9 136 394 0
9 -136 -394 0
-9 136 -394 0
-9 -136 394 0
150 764 -843 0
150 -764 843 0
-150 764 843 0
-150 -764 -843 0
337 725 854 0
337 -725 -854 0
-337 725 -854 0
-337 -725 854 0
126 615 735 0
126 -615 -735 0
-126 615 -735 0
-126 -615 735 0
39 733 -855 0
39 -733 855 0
-39 733 855 0
-39 -733 -855 0
105 737 856 0
105 -737 -856 0
-105 737 -856 0
-105 -737 856 0
229 638 -720 0
229 -638 720 0
-229 638 720 0
-229 -638 -720 0
312 857 858 0
312 -857 -858 0
-312 857 -858 0
-312 -857 858 0
569 783 859 0
569 -783 -859 0
-569 783 -859 0
-569 -783 859 0
92 583 705 0
92 -583 -705 0
-92 583 -705 0
-92 -583 705 0
14 152 736 0
14 -152 -736 0
-14 152 -736 0
-14 -152 736 0
170 254 -860 0
170 -254 860 0
-170 254 860 0
-170 -254 -860 0
820 861 -862 0
820 -861 862 0
-820 861 862 0
-820 -861 -862 0
752 756 -815 0
752 -756 815 0
-752 756 815 0
-752 -756 -815 0
97 723 863 0
97 -723 -863 0
-97 723 -863 0
-97 -723 863 0
391 645 864 0
391 -645 -864 0
-391 645 -864 0
-391 -645 864 0
434 861 865 0
434 -861 -865 0
-434 861 -865 0
-434 -861 865 0
6 145 -852 0
6 -145 852 0
-6 145 852 0
-6 -145 -852 0
300 536 -754 0
300 -536 754 0
-300 536 754 0
-300 -536 -754 0
36 545 -774 0
36 -545 774 0
-36 545 774 0
-36 -545 -774 0
655 768 -860 0
655 -768 860 0
-655 768 860 0
-655 -768 -860 0
410 429 -807 0
410 -429 807 0
-410 429 807 0
-410 -429 -807 0
11 483 866 0
11 -483 -866 0
-11 483 -866 0
-11 -483 866 0
103 594 -862 0
103 -594 862 0
-103 594 862 0
-103 -594 -862 0
186 328 501 0
186 -328 -501 0
-186 328 -501 0
-186 -328 501 0
491 831 867 0
491 -831 -867 0
-491 831 -867 0
-491 -831 867 0
452 540 868 0
452 -540 -868 0
-452 540 -868 0
-452 -540 868 0
453 485 -869 0
453 -485 869 0
-453 485 869 0
-453 -485 -869 0
273 320 -870 0
273 -320 870 0
-273 320 870 0
-273 -320 -870 0
380 687 -796 0
380 -687 796 0
-380 687 796 0
-380 -687 -796 0
527 612 -871 0
527 -612 871 0
-527 612 871 0
-527 -612 -871 0
95 134 -809 0
95 -134 809 0
-95 134 809 0
-95 -134 -809 0
761 822 872 0
761 -822 -872 0
-761 822 -872 0
-761 -822 872 0
418 567 864 0
418 -567 -864 0
-418 567 -864 0
-418 -567 864 0
72 865 -873 0
72 -865 873 0
-72 865 873 0
-72 -865 -873 0
344 378 874 0
344 -378 -874 0
-344 378 -874 0
-344 -378 874 0
351 369 849 0
351 -369 -849 0
-351 369 -849 0
-351 -369 849 0
477 658 -875 0
477 -658 875 0
-477 658 875 0
-477 -658 -875 0
439 547 821 0
439 -547 -821 0
-439 547 -821 0
-439 -547 821 0
177 280 -801 0
177 -280 801 0
-177 280 801 0
-177 -280 -801 0
153 786 -857 0
153 -786 857 0
-153 786 857 0
-153 -786 -857 0
17 712 -828 0
17 -712 828 0
-17 712 828 0
-17 -712 -828 0
422 874 876 0
422 -874 -876 0
-422 874 -876 0
-422 -874 876 0
532 773 837 0
532 -773 -837 0
-532 773 -837 0
-532 -773 837 0
303 365 -802 0
303 -365 802 0
-303 365 802 0
-303 -365 -802 0
211 336 -799 0
211 -336 799 0
-211 336 799 0
-211 -336 -799 0
63 199 877 0
63 -199 -877 0
-63 199 -877 0
-63 -199 877 0
359 878 -879 0
359 -878 879 0
-359 878 879 0
-359 -878 -879 0
528 707 -851 0
528 -707 851 0
-528 707 851 0
-528 -707 -851 0
590 781 -793 0
590 -781 793 0
-590 781 793 0
-590 -781 -793 0
742 880 881 0
742 -880 -881 0
-742 880 -881 0
-742 -880 881 0
384 632 -882 0
384 -632 882 0
-384 632 882 0
-384 -632 -882 0
383 867 -883 0
383 -867 883 0
-383 867 883 0
-383 -867 -883 0
388 561 -709 0
388 -561 709 0
-388 561 709 0
-388 -561 -709 0
750 789 -829 0
750 -789 829 0
-750 789 829 0
-750 -789 -829 0
473 601 -884 0
473 -601 884 0
-473 601 884 0
-473 -601 -884 0
119 470 602 0
119 -470 -602 0
-119 470 -602 0
-119 -470 602 0
610 717 -885 0
610 -717 885 0
-610 717 885 0
-610 -717 -885 0
660 778 -813 0
660 -778 813 0
-660 778 813 0
-660 -778 -813 0
461 648 748 0
461 -648 -748 0
-461 648 -748 0
-461 -648 748 0
192 810 -886 0
192 -810 886 0
-192 810 886 0
-192 -810 -886 0
288 611 679 0
288 -611 -679 0
-288 611 -679 0
-288 -611 679 0
354 395 -887 0
354 -395 887 0
-354 395 887 0
-354 -395 -887 0
159 306 -680 0
159 -306 680 0
-159 306 680 0
-159 -306 -680 0
203 880 -888 0
203 -880 888 0
-203 880 888 0
-203 -880 -888 0
700 747 819 0
700 -747 -819 0
-700 747 -819 0
-700 -747 819 0
706 830 889 0
706 -830 -889 0
-706 830 -889 0
-706 -830 889 0
21 239 -740 0
21 -239 740 0
-21 239 740 0
-21 -239 -740 0
467 496 -803 0
467 -496 803 0
-467 496 803 0
-467 -496 -803 0
797 811 -855 0
797 -811 855 0
-797 811 855 0
-797 -811 -855 0
99 741 -787 0
99 -741 787 0
-99 741 787 0
-99 -741 -787 0
600 693 890 0
600 -693 -890 0
-600 693 -890 0
-600 -693 890 0
88 173 -598 0
88 -173 598 0
-88 173 598 0
-88 -173 -598 0
12 624 -639 0
12 -624 639 0
-12 624 639 0
-12 -624 -639 0
442 856 -878 0
442 -856 878 0
-442 856 878 0
-442 -856 -878 0
515 840 -891 0
515 -840 891 0
-515 840 891 0
-515 -840 -891 0
673 838 891 0
673 -838 -891 0
-673 838 -891 0
-673 -838 891 0
818 826 -875 0
818 -826 875 0
-818 826 875 0
-818 -826 -875 0
89 555 784 0
89 -555 -784 0
-89 555 -784 0
-89 -555 784 0
108 892 893 0
108 -892 -893 0
-108 892 -893 0
-108 -892 893 0
782 839 894 0
782 -839 -894 0
-782 839 -894 0
-782 -839 894 0
143 502 -895 0
143 -502 895 0
-143 502 895 0
-143 -502 -895 0
234 832 833 0
234 -832 -833 0
-234 832 -833 0
-234 -832 833 0
718 817 -887 0
718 -817 887 0
-718 817 887 0
-718 -817 -887 0
178 701 757 0
178 -701 -757 0
-178 701 -757 0
-178 -701 757 0
200 713 -760 0
200 -713 760 0
-200 713 760 0
-200 -713 -760 0
765 869 -896 0
765 -869 896 0
-765 869 896 0
-765 -869 -896 0
260 779 -897 0
260 -779 897 0
-260 779 897 0
-260 -779 -897 0
121 248 -892 0
121 -248 892 0
-121 248 892 0
-121 -248 -892 0
498 587 654 0
498 -587 -654 0
-498 587 -654 0
-498 -587 654 0
237 790 -888 0
237 -790 888 0
-237 790 888 0
-237 -790 -888 0
148 445 804 0
148 -445 -804 0
-148 445 -804 0
-148 -445 804 0
333 370 -435 0
333 -370 435 0
-333 370 435 0
-333 -370 -435 0
372 592 696 0
372 -592 -696 0
-372 592 -696 0
-372 -592 696 0
293 845 -893 0
293 -845 893 0
-293 845 893 0
-293 -845 -893 0
745 882 -898 0
745 -882 898 0
-745 882 898 0
-745 -882 -898 0
244 468 -854 0
244 -468 854 0
-244 468 854 0
-244 -468 -854 0
75 257 -414 0
75 -257 414 0
-75 257 414 0
-75 -257 -414 0
767 859 879 0
767 -859 -879 0
-767 859 -879 0
-767 -859 879 0
33 427 -896 0
33 -427 896 0
-33 427 896 0
-33 -427 -896 0
283 823 866 0
283 -823 -866 0
-283 823 -866 0
-283 -823 866 0
585 618 -870 0
585 -618 870 0
-585 618 870 0
-585 -618 -870 0
551 573 841 0
551 -573 -841 0
-551 573 -841 0
-551 -573 841 0
885 889 899 0
885 -889 -899 0
-885 889 -899 0
-885 -889 899 0
18 262 703 0
18 -262 -703 0
-18 262 -703 0
-18 -262 703 0
847 868 900 0
847 -868 -900 0
-847 868 -900 0
-847 -868 900 0
64 853 -883 0
64 -853 883 0
-64 853 883 0
-64 -853 -883 0
459 604 -858 0
459 -604 858 0
-459 604 858 0
-459 -604 -858 0
274 842 876 0
274 -842 -876 0
-274 842 -876 0
-274 -842 876 0
123 630 834 0
123 -630 -834 0
-123 630 -834 0
-123 -630 834 0
66 348 -835 0
66 -348 835 0
-66 348 835 0
-66 -348 -835 0
241 424 -850 0
241 -424 850 0
-241 424 850 0
-241 -424 -850 0
110 420 -844 0
110 -420 844 0
-110 420 844 0
-110 -420 -844 0
100 132 643 0
100 -132 -643 0
-100 132 -643 0
-100 -132 643 0
724 772 -848 0
724 -772 848 0
-724 772 848 0
-724 -772 -848 0
51 83 -762 0
51 -83 762 0
-51 83 762 0
-51 -83 -762 0
15 111 -534 0
15 -111 534 0
-15 111 534 0
-15 -111 -534 0
309 480 714 0
309 -480 -714 0
-309 480 -714 0
-309 -480 714 0
24 45 886 0
24 -45 -886 0
-24 45 -886 0
-24 -45 886 0
758 785 881 0
758 -785 -881 0
-758 785 -881 0
-758 -785 881 0
57 362 686 0
57 -362 -686 0
-57 362 -686 0
-57 -362 686 0
743 863 -873 0
743 -863 873 0
-743 863 873 0
-743 -863 -873 0
176 373 697 0
176 -373 -697 0
-176 373 -697 0
-176 -373 697 0
317 553 -728 0
317 -553 728 0
-317 553 728 0
-317 -553 -728 0
389 871 -898 0
389 -871 898 0
-389 871 898 0
-389 -871 -898 0
877 895 900 0
877 -895 -900 0
-877 895 -900 0
-877 -895 900 0
338 438 -738 0
338 -438 738 0
-338 438 738 0
-338 -438 -738 0
137 331 -899 0
137 -331 899 0
-137 331 899 0
-137 -331 -899 0
322 872 897 0
322 -872 -897 0
-322 872 -897 0
-322 -872 897 0
463 884 -894 0
463 -884 894 0
-463 884 894 0
-463 -884 -894 0
668 808 -846 0
668 -808 846 0
-668 808 846 0
-668 -808 -846 0
478 702 -890 0
478 -702 890 0
-478 702 890 0
-478 -702 -890 0
