c description: Tseitin formula on random 3-regular graph on 1000 verices, with odd charge
c generator: CNFgen (0.9.6)
c copyright: (C) 2012-2026 Massimo Lauria <massimo.lauria@uniroma1.it>
c url: https://massimolauria.net/cnfgen
c command line: cnfgen tseitin 1000 3
c
p cnf 1500 4000
1 2 -3 0
1 -2 3 0
-1 2 3 0
-1 -2 -3 0
4 5 6 0
4 -5 -6 0
-4 5 -6 0
-4 -5 6 0
7 8 9 0
7 -8 -9 0
-7 8 -9 0
-7 -8 9 0
10 11 12 0
10 -11 -12 0
-10 11 -12 0
-10 -11 12 0
13 14 -15 0
13 -14 15 0
-13 14 15 0
-13 -14 -15 0
16 17 -18 0
16 -17 18 0
-16 17 18 0
-16 -17 -18 0
19 20 21 0
19 -20 -21 0
-19 20 -21 0
-19 -20 21 0
22 23 24 0
22 -23 -24 0
-22 23 -24 0
-22 -23 24 0
25 26 -27 0
25 -26 27 0
-25 26 27 0
-25 -26 -27 0
28 29 30 0
28 -29 -30 0
-28 29 -30 0
-28 -29 30 0
31 32 33 0
31 -32 -33 0
-31 32 -33 0
-31 -32 33 0
34 35 -36 0
34 -35 36 0
-34 35 36 0
-34 -35 -36 0
37 38 -39 0
37 -38 39 0
-37 38 39 0
-37 -38 -39 0
40 41 42 0
40 -41 -42 0
-40 41 -42 0
-40 -41 42 0
43 44 45 0
43 -44 -45 0
-43 44 -45 0
-43 -44 45 0
46 47 -48 0
46 -47 48 0
-46 47 48 0
-46 -47 -48 0
49 50 -51 0
49 -50 51 0
-49 50 51 0
-49 -50 -51 0
52 53 54 0
52 -53 -54 0
-52 53 -54 0
-52 -53 54 0
55 56 57 0
55 -56 -57 0
-55 56 -57 0
-55 -56 57 0
58 59 60 0
58 -59 -60 0
-58 59 -60 0
-58 -59 60 0
61 62 -63 0
61 -62 63 0
-61 62 63 0
-61 -62 -63 0
64 65 -66 0
64 -65 66 0
-64 65 66 0
-64 -65 -66 0
22 67 68 0
22 -67 -68 0
-22 67 -68 0
-22 -67 68 0
28 69 -70 0
28 -69 70 0
-28 69 70 0
-28 -69 -70 0
71 72 -73 0
71 -72 73 0
-71 72 73 0
-71 -72 -73 0
25 74 75 0
25 -74 -75 0
-25 74 -75 0
-25 -74 75 0
76 77 -78 0
76 -77 78 0
-76 77 78 0
-76 -77 -78 0
79 80 81 0
79 -80 -81 0
-79 80 -81 0
-79 -80 81 0
82 83 84 0
82 -83 -84 0
-82 83 -84 0
-82 -83 84 0
85 86 87 0
85 -86 -87 0
-85 86 -87 0
-85 -86 87 0
88 89 90 0
88 -89 -90 0
-88 89 -90 0
-88 -89 90 0
91 92 -93 0
91 -92 93 0
-91 92 93 0
-91 -92 -93 0
94 95 96 0
94 -95 -96 0
-94 95 -96 0
-94 -95 96 0
97 98 -99 0
97 -98 99 0
-97 98 99 0
-97 -98 -99 0
100 101 -102 0
100 -101 102 0
-100 101 102 0
-100 -101 -102 0
103 104 -105 0
103 -104 105 0
-103 104 105 0
-103 -104 -105 0
106 107 108 0
106 -107 -108 0
-106 107 -108 0
-106 -107 108 0
109 110 -111 0
109 -110 111 0
-109 110 111 0
-109 -110 -111 0
112 113 -114 0
112 -113 114 0
-112 113 114 0
-112 -113 -114 0
4 115 -116 0
4 -115 116 0
-4 115 116 0
-4 -115 -116 0
117 118 -119 0
117 -118 119 0
-117 118 119 0
-117 -118 -119 0
120 121 -122 0
120 -121 122 0
-120 121 122 0
-120 -121 -122 0
115 123 -124 0
115 -123 124 0
-115 123 124 0
-115 -123 -124 0
125 126 -127 0
125 -126 127 0
-125 126 127 0
-125 -126 -127 0
128 129 130 0
128 -129 -130 0
-128 129 -130 0
-128 -129 130 0
64 79 131 0
64 -79 -131 0
-64 79 -131 0
-64 -79 131 0
10 132 133 0
10 -132 -133 0
-10 132 -133 0
-10 -132 133 0
134 135 -136 0
134 -135 136 0
-134 135 136 0
-134 -135 -136 0
137 138 -139 0
137 -138 139 0
-137 138 139 0
-137 -138 -139 0
140 141 -142 0
140 -141 142 0
-140 141 142 0
-140 -141 -142 0
143 144 -145 0
143 -144 145 0
-143 144 145 0
-143 -144 -145 0
146 147 148 0
146 -147 -148 0
-146 147 -148 0
-146 -147 148 0
149 150 151 0
149 -150 -151 0
-149 150 -151 0
-149 -150 151 0
152 153 -154 0
152 -153 154 0
-152 153 154 0
-152 -153 -154 0
155 156 157 0
155 -156 -157 0
-155 156 -157 0
-155 -156 157 0
158 159 -160 0
158 -159 160 0
-158 159 160 0
-158 -159 -160 0
161 162 -163 0
161 -162 163 0
-161 162 163 0
-161 -162 -163 0
164 165 166 0
164 -165 -166 0
-164 165 -166 0
-164 -165 166 0
167 168 -169 0
167 -168 169 0
-167 168 169 0
-167 -168 -169 0
170 171 172 0
170 -171 -172 0
-170 171 -172 0
-170 -171 172 0
173 174 -175 0
173 -174 175 0
-173 174 175 0
-173 -174 -175 0
176 177 178 0
176 -177 -178 0
-176 177 -178 0
-176 -177 178 0
31 179 180 0
31 -179 -180 0
-31 179 -180 0
-31 -179 180 0
181 182 183 0
181 -182 -183 0
-181 182 -183 0
-181 -182 183 0
120 184 -185 0
120 -184 185 0
-120 184 185 0
-120 -184 -185 0
34 186 -187 0
34 -186 187 0
-34 186 187 0
-34 -186 -187 0
188 189 190 0
188 -189 -190 0
-188 189 -190 0
-188 -189 190 0
5 191 192 0
5 -191 -192 0
-5 191 -192 0
-5 -191 192 0
65 193 -194 0
65 -193 194 0
-65 193 194 0
-65 -193 -194 0
195 196 197 0
195 -196 -197 0
-195 196 -197 0
-195 -196 197 0
198 199 200 0
198 -199 -200 0
-198 199 -200 0
-198 -199 200 0
201 202 203 0
201 -202 -203 0
-201 202 -203 0
-201 -202 203 0
204 205 206 0
204 -205 -206 0
-204 205 -206 0
-204 -205 206 0
207 208 -209 0
207 -208 209 0
-207 208 209 0
-207 -208 -209 0
210 211 -212 0
210 -211 212 0
-210 211 212 0
-210 -211 -212 0
213 214 215 0
213 -214 -215 0
-213 214 -215 0
-213 -214 215 0
216 217 218 0
216 -217 -218 0
-216 217 -218 0
-216 -217 218 0
191 219 -220 0
191 -219 220 0
-191 219 220 0
-191 -219 -220 0
66 76 -146 0
66 -76 146 0
-66 76 146 0
-66 -76 -146 0
221 222 -223 0
221 -222 223 0
-221 222 223 0
-221 -222 -223 0
224 225 226 0
224 -225 -226 0
-224 225 -226 0
-224 -225 226 0
23 195 -227 0
23 -195 227 0
-23 195 227 0
-23 -195 -227 0
228 229 230 0
228 -229 -230 0
-228 229 -230 0
-228 -229 230 0
231 232 -233 0
231 -232 233 0
-231 232 233 0
-231 -232 -233 0
121 234 -235 0
121 -234 235 0
-121 234 235 0
-121 -234 -235 0
236 237 -238 0
236 -237 238 0
-236 237 238 0
-236 -237 -238 0
239 240 -241 0
239 -240 241 0
-239 240 241 0
-239 -240 -241 0
242 243 -244 0
242 -243 244 0
-242 243 244 0
-242 -243 -244 0
207 245 -246 0
207 -245 246 0
-207 245 246 0
-207 -245 -246 0
128 247 -248 0
128 -247 248 0
-128 247 248 0
-128 -247 -248 0
249 250 251 0
249 -250 -251 0
-249 250 -251 0
-249 -250 251 0
252 253 -254 0
252 -253 254 0
-252 253 254 0
-252 -253 -254 0
255 256 -257 0
255 -256 257 0
-255 256 257 0
-255 -256 -257 0
26 258 259 0
26 -258 -259 0
-26 258 -259 0
-26 -258 259 0
260 261 262 0
260 -261 -262 0
-260 261 -262 0
-260 -261 262 0
263 264 -265 0
263 -264 265 0
-263 264 265 0
-263 -264 -265 0
266 267 268 0
266 -267 -268 0
-266 267 -268 0
-266 -267 268 0
269 270 271 0
269 -270 -271 0
-269 270 -271 0
-269 -270 271 0
272 273 -274 0
272 -273 274 0
-272 273 274 0
-272 -273 -274 0
275 276 277 0
275 -276 -277 0
-275 276 -277 0
-275 -276 277 0
278 279 280 0
278 -279 -280 0
-278 279 -280 0
-278 -279 280 0
281 282 -283 0
281 -282 283 0
-281 282 283 0
-281 -282 -283 0
284 285 -286 0
284 -285 286 0
-284 285 286 0
-284 -285 -286 0
287 288 -289 0
287 -288 289 0
-287 288 289 0
-287 -288 -289 0
290 291 292 0
290 -291 -292 0
-290 291 -292 0
-290 -291 292 0
293 294 295 0
293 -294 -295 0
-293 294 -295 0
-293 -294 295 0
296 297 -298 0
296 -297 298 0
-296 297 298 0
-296 -297 -298 0
299 300 -301 0
299 -300 301 0
-299 300 301 0
-299 -300 -301 0
302 303 304 0
302 -303 -304 0
-302 303 -304 0
-302 -303 304 0
305 306 -307 0
305 -306 307 0
-305 306 307 0
-305 -306 -307 0
308 309 310 0
308 -309 -310 0
-308 309 -310 0
-308 -309 310 0
311 312 -313 0
311 -312 313 0
-311 312 313 0
-311 -312 -313 0
236 314 -315 0
236 -314 315 0
-236 314 315 0
-236 -314 -315 0
208 316 -317 0
208 -316 317 0
-208 316 317 0
-208 -316 -317 0
318 319 -320 0
318 -319 320 0
-318 319 320 0
-318 -319 -320 0
321 322 -323 0
321 -322 323 0
-321 322 323 0
-321 -322 -323 0
324 325 326 0
324 -325 -326 0
-324 325 -326 0
-324 -325 326 0
327 328 -329 0
327 -328 329 0
-327 328 329 0
-327 -328 -329 0
330 331 332 0
330 -331 -332 0
-330 331 -332 0
-330 -331 332 0
333 334 -335 0
333 -334 335 0
-333 334 335 0
-333 -334 -335 0
336 337 -338 0
336 -337 338 0
-336 337 338 0
-336 -337 -338 0
339 340 341 0
339 -340 -341 0
-339 340 -341 0
-339 -340 341 0
342 343 -344 0
342 -343 344 0
-342 343 344 0
-342 -343 -344 0
255 345 -346 0
255 -345 346 0
-255 345 346 0
-255 -345 -346 0
347 348 -349 0
347 -348 349 0
-347 348 349 0
-347 -348 -349 0
350 351 -352 0
350 -351 352 0
-350 351 352 0
-350 -351 -352 0
353 354 355 0
353 -354 -355 0
-353 354 -355 0
-353 -354 355 0
356 357 358 0
356 -357 -358 0
-356 357 -358 0
-356 -357 358 0
359 360 361 0
359 -360 -361 0
-359 360 -361 0
-359 -360 361 0
24 362 -363 0
24 -362 363 0
-24 362 363 0
-24 -362 -363 0
364 365 366 0
364 -365 -366 0
-364 365 -366 0
-364 -365 366 0
367 368 -369 0
367 -368 369 0
-367 368 369 0
-367 -368 -369 0
370 371 372 0
370 -371 -372 0
-370 371 -372 0
-370 -371 372 0
373 374 -375 0
373 -374 375 0
-373 374 375 0
-373 -374 -375 0
376 377 378 0
376 -377 -378 0
-376 377 -378 0
-376 -377 378 0
379 380 381 0
379 -380 -381 0
-379 380 -381 0
-379 -380 381 0
382 383 -384 0
382 -383 384 0
-382 383 384 0
-382 -383 -384 0
385 386 -387 0
385 -386 387 0
-385 386 387 0
-385 -386 -387 0
388 389 390 0
388 -389 -390 0
-388 389 -390 0
-388 -389 390 0
293 391 392 0
293 -391 -392 0
-293 391 -392 0
-293 -391 392 0
393 394 395 0
393 -394 -395 0
-393 394 -395 0
-393 -394 395 0
125 149 -396 0
125 -149 396 0
-125 149 396 0
-125 -149 -396 0
379 397 -398 0
379 -397 398 0
-379 397 398 0
-379 -397 -398 0
399 400 401 0
399 -400 -401 0
-399 400 -401 0
-399 -400 401 0
364 402 403 0
364 -402 -403 0
-364 402 -403 0
-364 -402 403 0
404 405 406 0
404 -405 -406 0
-404 405 -406 0
-404 -405 406 0
407 408 -409 0
407 -408 409 0
-407 408 409 0
-407 -408 -409 0
410 411 -412 0
410 -411 412 0
-410 411 412 0
-410 -411 -412 0
413 414 415 0
413 -414 -415 0
-413 414 -415 0
-413 -414 415 0
132 416 -417 0
132 -416 417 0
-132 416 417 0
-132 -416 -417 0
418 419 -420 0
418 -419 420 0
-418 419 420 0
-418 -419 -420 0
421 422 -423 0
421 -422 423 0
-421 422 423 0
-421 -422 -423 0
424 425 426 0
424 -425 -426 0
-424 425 -426 0
-424 -425 426 0
427 428 -429 0
427 -428 429 0
-427 428 429 0
-427 -428 -429 0
430 431 432 0
430 -431 -432 0
-430 431 -432 0
-430 -431 432 0
433 434 435 0
433 -434 -435 0
-433 434 -435 0
-433 -434 435 0
260 436 437 0
260 -436 -437 0
-260 436 -437 0
-260 -436 437 0
438 439 -440 0
438 -439 440 0
-438 439 440 0
-438 -439 -440 0
441 442 443 0
441 -442 -443 0
-441 442 -443 0
-441 -442 443 0
444 445 446 0
444 -445 -446 0
-444 445 -446 0
-444 -445 446 0
447 448 449 0
447 -448 -449 0
-447 448 -449 0
-447 -448 449 0
450 451 452 0
450 -451 -452 0
-450 451 -452 0
-450 -451 452 0
453 454 -455 0
453 -454 455 0
-453 454 455 0
-453 -454 -455 0
456 457 -458 0
456 -457 458 0
-456 457 458 0
-456 -457 -458 0
13 290 459 0
13 -290 -459 0
-13 290 -459 0
-13 -290 459 0
460 461 -462 0
460 -461 462 0
-460 461 462 0
-460 -461 -462 0
463 464 -465 0
463 -464 465 0
-463 464 465 0
-463 -464 -465 0
466 467 -468 0
466 -467 468 0
-466 467 468 0
-466 -467 -468 0
181 469 -470 0
181 -469 470 0
-181 469 470 0
-181 -469 -470 0
471 472 473 0
471 -472 -473 0
-471 472 -473 0
-471 -472 473 0
474 475 -476 0
474 -475 476 0
-474 475 476 0
-474 -475 -476 0
61 152 477 0
61 -152 -477 0
-61 152 -477 0
-61 -152 477 0
302 478 -479 0
302 -478 479 0
-302 478 479 0
-302 -478 -479 0
480 481 -482 0
480 -481 482 0
-480 481 482 0
-480 -481 -482 0
430 483 -484 0
430 -483 484 0
-430 483 484 0
-430 -483 -484 0
485 486 487 0
485 -486 -487 0
-485 486 -487 0
-485 -486 487 0
88 311 488 0
88 -311 -488 0
-88 311 -488 0
-88 -311 488 0
489 490 -491 0
489 -490 491 0
-489 490 491 0
-489 -490 -491 0
492 493 -494 0
492 -493 494 0
-492 493 494 0
-492 -493 -494 0
495 496 -497 0
495 -496 497 0
-495 496 497 0
-495 -496 -497 0
308 498 -499 0
308 -498 499 0
-308 498 499 0
-308 -498 -499 0
500 501 502 0
500 -501 -502 0
-500 501 -502 0
-500 -501 502 0
503 504 -505 0
503 -504 505 0
-503 504 505 0
-503 -504 -505 0
506 507 508 0
506 -507 -508 0
-506 507 -508 0
-506 -507 508 0
509 510 511 0
509 -510 -511 0
-509 510 -511 0
-509 -510 511 0
512 513 514 0
512 -513 -514 0
-512 513 -514 0
-512 -513 514 0
402 515 516 0
402 -515 -516 0
-402 515 -516 0
-402 -515 516 0
517 518 519 0
517 -518 -519 0
-517 518 -519 0
-517 -518 519 0
520 521 522 0
520 -521 -522 0
-520 521 -522 0
-520 -521 522 0
523 524 -525 0
523 -524 525 0
-523 524 525 0
-523 -524 -525 0
382 526 -527 0
382 -526 527 0
-382 526 527 0
-382 -526 -527 0
528 529 530 0
528 -529 -530 0
-528 529 -530 0
-528 -529 530 0
531 532 533 0
531 -532 -533 0
-531 532 -533 0
-531 -532 533 0
534 535 536 0
534 -535 -536 0
-534 535 -536 0
-534 -535 536 0
427 537 538 0
427 -537 -538 0
-427 537 -538 0
-427 -537 538 0
213 539 540 0
213 -539 -540 0
-213 539 -540 0
-213 -539 540 0
541 542 543 0
541 -542 -543 0
-541 542 -543 0
-541 -542 543 0
544 545 546 0
544 -545 -546 0
-544 545 -546 0
-544 -545 546 0
547 548 549 0
547 -548 -549 0
-547 548 -549 0
-547 -548 549 0
550 551 552 0
550 -551 -552 0
-550 551 -552 0
-550 -551 552 0
553 554 555 0
553 -554 -555 0
-553 554 -555 0
-553 -554 555 0
556 557 -558 0
556 -557 558 0
-556 557 558 0
-556 -557 -558 0
188 474 -559 0
188 -474 559 0
-188 474 559 0
-188 -474 -559 0
560 561 562 0
560 -561 -562 0
-560 561 -562 0
-560 -561 562 0
460 563 -564 0
460 -563 564 0
-460 563 564 0
-460 -563 -564 0
565 566 -567 0
565 -566 567 0
-565 566 567 0
-565 -566 -567 0
568 569 570 0
568 -569 -570 0
-568 569 -570 0
-568 -569 570 0
571 572 573 0
571 -572 -573 0
-571 572 -573 0
-571 -572 573 0
416 574 -575 0
416 -574 575 0
-416 574 575 0
-416 -574 -575 0
37 576 577 0
37 -576 -577 0
-37 576 -577 0
-37 -576 577 0
453 578 -579 0
453 -578 579 0
-453 578 579 0
-453 -578 -579 0
547 580 -581 0
547 -580 581 0
-547 580 581 0
-547 -580 -581 0
582 583 -584 0
582 -583 584 0
-582 583 584 0
-582 -583 -584 0
585 586 587 0
585 -586 -587 0
-585 586 -587 0
-585 -586 587 0
588 589 590 0
588 -589 -590 0
-588 589 -590 0
-588 -589 590 0
46 591 -592 0
46 -591 592 0
-46 591 592 0
-46 -591 -592 0
269 593 -594 0
269 -593 594 0
-269 593 594 0
-269 -593 -594 0
595 596 -597 0
595 -596 597 0
-595 596 597 0
-595 -596 -597 0
29 598 -599 0
29 -598 599 0
-29 598 599 0
-29 -598 -599 0
359 600 601 0
359 -600 -601 0
-359 600 -601 0
-359 -600 601 0
602 603 604 0
602 -603 -604 0
-602 603 -604 0
-602 -603 604 0
252 605 606 0
252 -605 -606 0
-252 605 -606 0
-252 -605 606 0
71 117 607 0
71 -117 -607 0
-71 117 -607 0
-71 -117 607 0
582 608 -609 0
582 -608 609 0
-582 608 609 0
-582 -608 -609 0
441 610 -611 0
441 -610 611 0
-441 610 611 0
-441 -610 -611 0
407 612 -613 0
407 -612 613 0
-407 612 613 0
-407 -612 -613 0
224 463 -614 0
224 -463 614 0
-224 463 614 0
-224 -463 -614 0
615 616 -617 0
615 -616 617 0
-615 616 617 0
-615 -616 -617 0
198 388 -618 0
198 -388 618 0
-198 388 618 0
-198 -388 -618 0
619 620 621 0
619 -620 -621 0
-619 620 -621 0
-619 -620 621 0
622 623 624 0
622 -623 -624 0
-622 623 -624 0
-622 -623 624 0
43 625 -626 0
43 -625 626 0
-43 625 626 0
-43 -625 -626 0
475 627 628 0
475 -627 -628 0
-475 627 -628 0
-475 -627 628 0
370 598 -629 0
370 -598 629 0
-370 598 629 0
-370 -598 -629 0
630 631 632 0
630 -631 -632 0
-630 631 -632 0
-630 -631 632 0
100 633 634 0
100 -633 -634 0
-100 633 -634 0
-100 -633 634 0
333 565 635 0
333 -565 -635 0
-333 565 -635 0
-333 -565 635 0
106 636 -637 0
106 -636 637 0
-106 636 637 0
-106 -636 -637 0
488 638 -639 0
488 -638 639 0
-488 638 639 0
-488 -638 -639 0
640 641 -642 0
640 -641 642 0
-640 641 642 0
-640 -641 -642 0
263 643 644 0
263 -643 -644 0
-263 643 -644 0
-263 -643 644 0
173 324 645 0
173 -324 -645 0
-173 324 -645 0
-173 -324 645 0
421 646 647 0
421 -646 -647 0
-421 646 -647 0
-421 -646 647 0
204 256 648 0
204 -256 -648 0
-204 256 -648 0
-204 -256 648 0
649 650 -651 0
649 -650 651 0
-649 650 651 0
-649 -650 -651 0
652 653 -654 0
652 -653 654 0
-652 653 654 0
-652 -653 -654 0
655 656 657 0
655 -656 -657 0
-655 656 -657 0
-655 -656 657 0
371 658 659 0
371 -658 -659 0
-371 658 -659 0
-371 -658 659 0
660 661 -662 0
660 -661 662 0
-660 661 662 0
-660 -661 -662 0
137 528 663 0
137 -528 -663 0
-137 528 -663 0
-137 -528 663 0
214 664 -665 0
214 -664 665 0
-214 664 665 0
-214 -664 -665 0
1 666 -667 0
1 -666 667 0
-1 666 667 0
-1 -666 -667 0
167 668 -669 0
167 -668 669 0
-167 668 669 0
-167 -668 -669 0
97 670 671 0
97 -670 -671 0
-97 670 -671 0
-97 -670 671 0
74 367 -672 0
74 -367 672 0
-74 367 672 0
-74 -367 -672 0
498 673 674 0
498 -673 -674 0
-498 673 -674 0
-498 -673 674 0
450 675 -676 0
450 -675 676 0
-450 675 676 0
-450 -675 -676 0
464 677 678 0
464 -677 -678 0
-464 677 -678 0
-464 -677 678 0
553 679 -680 0
553 -679 680 0
-553 679 680 0
-553 -679 -680 0
681 682 683 0
681 -682 -683 0
-681 682 -683 0
-681 -682 683 0
179 399 684 0
179 -399 -684 0
-179 399 -684 0
-179 -399 684 0
164 685 686 0
164 -685 -686 0
-164 685 -686 0
-164 -685 686 0
563 687 -688 0
563 -687 688 0
-563 687 688 0
-563 -687 -688 0
170 461 -689 0
170 -461 689 0
-170 461 689 0
-170 -461 -689 0
40 681 690 0
40 -681 -690 0
-40 681 -690 0
-40 -681 690 0
691 692 -693 0
691 -692 693 0
-691 692 693 0
-691 -692 -693 0
30 404 694 0
30 -404 -694 0
-30 404 -694 0
-30 -404 694 0
272 695 696 0
272 -695 -696 0
-272 695 -696 0
-272 -695 696 0
697 698 -699 0
697 -698 699 0
-697 698 699 0
-697 -698 -699 0
700 701 -702 0
700 -701 702 0
-700 701 702 0
-700 -701 -702 0
703 704 705 0
703 -704 -705 0
-703 704 -705 0
-703 -704 705 0
182 706 707 0
182 -706 -707 0
-182 706 -707 0
-182 -706 707 0
607 708 709 0
607 -708 -709 0
-607 708 -709 0
-607 -708 709 0
710 711 -712 0
710 -711 712 0
-710 711 712 0
-710 -711 -712 0
342 670 -713 0
342 -670 713 0
-342 670 713 0
-342 -670 -713 0
219 478 714 0
219 -478 -714 0
-219 478 -714 0
-219 -478 714 0
249 459 -556 0
249 -459 556 0
-249 459 556 0
-249 -459 -556 0
515 537 -715 0
515 -537 715 0
-515 537 715 0
-515 -537 -715 0
716 717 -718 0
716 -717 718 0
-716 717 718 0
-716 -717 -718 0
719 720 721 0
719 -720 -721 0
-719 720 -721 0
-719 -720 721 0
216 716 722 0
216 -716 -722 0
-216 716 -722 0
-216 -716 722 0
155 723 724 0
155 -723 -724 0
-155 723 -724 0
-155 -723 724 0
725 726 727 0
725 -726 -727 0
-725 726 -727 0
-725 -726 727 0
728 729 730 0
728 -729 -730 0
-728 729 -730 0
-728 -729 730 0
245 731 -732 0
245 -731 732 0
-245 731 732 0
-245 -731 -732 0
447 733 -734 0
447 -733 734 0
-447 733 734 0
-447 -733 -734 0
82 595 -735 0
82 -595 735 0
-82 595 735 0
-82 -595 -735 0
55 736 -737 0
55 -736 737 0
-55 736 737 0
-55 -736 -737 0
738 739 740 0
738 -739 -740 0
-738 739 -740 0
-738 -739 740 0
19 174 741 0
19 -174 -741 0
-19 174 -741 0
-19 -174 741 0
742 743 744 0
742 -743 -744 0
-742 743 -744 0
-742 -743 744 0
745 746 747 0
745 -746 -747 0
-745 746 -747 0
-745 -746 747 0
503 748 749 0
503 -748 -749 0
-503 748 -749 0
-503 -748 749 0
275 750 -751 0
275 -750 751 0
-275 750 751 0
-275 -750 -751 0
258 752 753 0
258 -752 -753 0
-258 752 -753 0
-258 -752 753 0
754 755 756 0
754 -755 -756 0
-754 755 -756 0
-754 -755 756 0
622 757 -758 0
622 -757 758 0
-622 757 758 0
-622 -757 -758 0
618 759 -760 0
618 -759 760 0
-618 759 760 0
-618 -759 -760 0
356 761 762 0
356 -761 -762 0
-356 761 -762 0
-356 -761 762 0
161 763 764 0
161 -763 -764 0
-161 763 -764 0
-161 -763 764 0
765 766 -767 0
765 -766 767 0
-765 766 767 0
-765 -766 -767 0
768 769 -770 0
768 -769 770 0
-768 769 770 0
-768 -769 -770 0
771 772 773 0
771 -772 -773 0
-771 772 -773 0
-771 -772 773 0
774 775 -776 0
774 -775 776 0
-774 775 776 0
-774 -775 -776 0
180 228 -777 0
180 -228 777 0
-180 228 777 0
-180 -228 -777 0
239 509 -778 0
239 -509 778 0
-239 509 778 0
-239 -509 -778 0
779 780 781 0
779 -780 -781 0
-779 780 -781 0
-779 -780 781 0
2 376 -782 0
2 -376 782 0
-2 376 782 0
-2 -376 -782 0
49 287 783 0
49 -287 -783 0
-49 287 -783 0
-49 -287 783 0
109 259 -784 0
109 -259 784 0
-109 259 784 0
-109 -259 -784 0
785 786 787 0
785 -786 -787 0
-785 786 -787 0
-785 -786 787 0
165 728 788 0
165 -728 -788 0
-165 728 -788 0
-165 -728 788 0
373 729 -789 0
373 -729 789 0
-373 729 789 0
-373 -729 -789 0
374 790 -791 0
374 -790 791 0
-374 790 791 0
-374 -790 -791 0
123 664 -792 0
123 -664 792 0
-123 664 792 0
-123 -664 -792 0
793 794 795 0
793 -794 -795 0
-793 794 -795 0
-793 -794 795 0
554 796 -797 0
554 -796 797 0
-554 796 797 0
-554 -796 -797 0
397 526 -798 0
397 -526 798 0
-397 526 798 0
-397 -526 -798 0
799 800 801 0
799 -800 -801 0
-799 800 -801 0
-799 -800 801 0
253 400 -802 0
253 -400 802 0
-253 400 802 0
-253 -400 -802 0
658 803 -804 0
658 -803 804 0
-658 803 804 0
-658 -803 -804 0
231 655 805 0
231 -655 -805 0
-231 655 -805 0
-231 -655 805 0
806 807 -808 0
806 -807 808 0
-806 807 808 0
-806 -807 -808 0
14 809 810 0
14 -809 -810 0
-14 809 -810 0
-14 -809 810 0
574 706 -811 0
574 -706 811 0
-574 706 811 0
-574 -706 -811 0
812 813 814 0
812 -813 -814 0
-812 813 -814 0
-812 -813 814 0
815 816 817 0
815 -816 -817 0
-815 816 -817 0
-815 -816 817 0
196 818 819 0
196 -818 -819 0
-196 818 -819 0
-196 -818 819 0
205 820 -821 0
205 -820 821 0
-205 820 821 0
-205 -820 -821 0
325 822 -823 0
325 -822 823 0
-325 822 823 0
-325 -822 -823 0
659 792 824 0
659 -792 -824 0
-659 792 -824 0
-659 -792 824 0
789 825 -826 0
789 -825 826 0
-789 825 826 0
-789 -825 -826 0
477 827 -828 0
477 -827 828 0
-477 827 828 0
-477 -827 -828 0
829 830 831 0
829 -830 -831 0
-829 830 -831 0
-829 -830 831 0
832 833 834 0
832 -833 -834 0
-832 833 -834 0
-832 -833 834 0
299 327 835 0
299 -327 -835 0
-299 327 -835 0
-299 -327 835 0
836 837 838 0
836 -837 -838 0
-836 837 -838 0
-836 -837 838 0
640 839 -840 0
640 -839 840 0
-640 839 840 0
-640 -839 -840 0
380 841 -842 0
380 -841 842 0
-380 841 842 0
-380 -841 -842 0
483 843 -844 0
483 -843 844 0
-483 843 844 0
-483 -843 -844 0
347 845 -846 0
347 -845 846 0
-347 845 846 0
-347 -845 -846 0
847 848 -849 0
847 -848 849 0
-847 848 849 0
-847 -848 -849 0
32 700 850 0
32 -700 -850 0
-32 700 -850 0
-32 -700 850 0
541 851 852 0
541 -851 -852 0
-541 851 -852 0
-541 -851 852 0
385 853 854 0
385 -853 -854 0
-385 853 -854 0
-385 -853 854 0
150 217 -668 0
150 -217 668 0
-150 217 668 0
-150 -217 -668 0
284 855 856 0
284 -855 -856 0
-284 855 -856 0
-284 -855 856 0
428 715 -857 0
428 -715 857 0
-428 715 857 0
-428 -715 -857 0
858 859 -860 0
858 -859 860 0
-858 859 860 0
-858 -859 -860 0
227 861 -862 0
227 -861 862 0
-227 861 862 0
-227 -861 -862 0
264 343 -863 0
264 -343 863 0
-264 343 863 0
-264 -343 -863 0
602 864 865 0
602 -864 -865 0
-602 864 -865 0
-602 -864 865 0
67 866 -867 0
67 -866 867 0
-67 866 867 0
-67 -866 -867 0
321 868 869 0
321 -868 -869 0
-321 868 -869 0
-321 -868 869 0
322 353 -870 0
322 -353 870 0
-322 353 870 0
-322 -353 -870 0
210 871 872 0
210 -871 -872 0
-210 871 -872 0
-210 -871 872 0
360 707 -873 0
360 -707 873 0
-360 707 873 0
-360 -707 -873 0
50 418 874 0
50 -418 -874 0
-50 418 -874 0
-50 -418 874 0
689 742 -875 0
689 -742 875 0
-689 742 875 0
-689 -742 -875 0
176 822 -876 0
176 -822 876 0
-176 822 876 0
-176 -822 -876 0
448 531 544 0
448 -531 -544 0
-448 531 -544 0
-448 -531 544 0
69 336 -877 0
69 -336 877 0
-69 336 877 0
-69 -336 -877 0
362 571 878 0
362 -571 -878 0
-362 571 -878 0
-362 -571 878 0
733 879 -880 0
733 -879 880 0
-733 879 880 0
-733 -879 -880 0
600 881 -882 0
600 -881 882 0
-600 881 882 0
-600 -881 -882 0
883 884 885 0
883 -884 -885 0
-883 884 -885 0
-883 -884 885 0
886 887 -888 0
886 -887 888 0
-886 887 888 0
-886 -887 -888 0
101 889 890 0
101 -889 -890 0
-101 889 -890 0
-101 -889 890 0
784 891 -892 0
784 -891 892 0
-784 891 892 0
-784 -891 -892 0
318 517 893 0
318 -517 -893 0
-318 517 -893 0
-318 -517 893 0
383 894 -895 0
383 -894 895 0
-383 894 895 0
-383 -894 -895 0
158 896 897 0
158 -896 -897 0
-158 896 -897 0
-158 -896 897 0
898 899 900 0
898 -899 -900 0
-898 899 -900 0
-898 -899 900 0
398 901 -902 0
398 -901 902 0
-398 901 902 0
-398 -901 -902 0
35 903 904 0
35 -903 -904 0
-35 903 -904 0
-35 -903 904 0
516 725 -905 0
516 -725 905 0
-516 725 905 0
-516 -725 -905 0
906 907 908 0
906 -907 -908 0
-906 907 -908 0
-906 -907 908 0
909 910 911 0
909 -910 -911 0
-909 910 -911 0
-909 -910 911 0
56 912 913 0
56 -912 -913 0
-56 912 -913 0
-56 -912 913 0
754 914 915 0
754 -914 -915 0
-754 914 -915 0
-754 -914 915 0
442 785 799 0
442 -785 -799 0
-442 785 -799 0
-442 -785 799 0
77 916 917 0
77 -916 -917 0
-77 916 -917 0
-77 -916 917 0
734 918 -919 0
734 -918 919 0
-734 918 919 0
-734 -918 -919 0
714 920 -921 0
714 -920 921 0
-714 920 921 0
-714 -920 -921 0
396 506 922 0
396 -506 -922 0
-396 506 -922 0
-396 -506 922 0
923 924 925 0
923 -924 -925 0
-923 924 -925 0
-923 -924 925 0
175 926 927 0
175 -926 -927 0
-175 926 -927 0
-175 -926 927 0
52 471 928 0
52 -471 -928 0
-52 471 -928 0
-52 -471 928 0
550 566 929 0
550 -566 -929 0
-550 566 -929 0
-550 -566 929 0
685 930 931 0
685 -930 -931 0
-685 930 -931 0
-685 -930 931 0
41 932 -933 0
41 -932 933 0
-41 932 933 0
-41 -932 -933 0
291 847 -934 0
291 -847 934 0
-291 847 934 0
-291 -847 -934 0
365 935 936 0
365 -935 -936 0
-365 935 -936 0
-365 -935 936 0
389 779 -937 0
389 -779 937 0
-389 779 937 0
-389 -779 -937 0
462 820 938 0
462 -820 -938 0
-462 820 -938 0
-462 -820 938 0
112 357 -939 0
112 -357 939 0
-112 357 939 0
-112 -357 -939 0
719 940 941 0
719 -940 -941 0
-719 940 -941 0
-719 -940 941 0
75 942 943 0
75 -942 -943 0
-75 942 -943 0
-75 -942 943 0
98 221 -366 0
98 -221 366 0
-98 221 366 0
-98 -221 -366 0
944 945 946 0
944 -945 -946 0
-944 945 -946 0
-944 -945 946 0
62 947 -948 0
62 -947 948 0
-62 947 948 0
-62 -947 -948 0
916 949 950 0
916 -949 -950 0
-916 949 -950 0
-916 -949 950 0
841 951 -952 0
841 -951 952 0
-841 951 952 0
-841 -951 -952 0
615 660 -953 0
615 -660 953 0
-615 660 953 0
-615 -660 -953 0
492 954 -955 0
492 -954 955 0
-492 954 955 0
-492 -954 -955 0
906 956 957 0
906 -956 -957 0
-906 956 -957 0
-906 -956 957 0
265 958 959 0
265 -958 -959 0
-265 958 -959 0
-265 -958 959 0
485 878 960 0
485 -878 -960 0
-485 878 -960 0
-485 -878 960 0
891 961 -962 0
891 -961 962 0
-891 961 962 0
-891 -961 -962 0
118 963 964 0
118 -963 -964 0
-118 963 -964 0
-118 -963 964 0
684 965 -966 0
684 -965 966 0
-684 965 966 0
-684 -965 -966 0
11 855 -967 0
11 -855 967 0
-11 855 967 0
-11 -855 -967 0
968 969 -970 0
968 -969 970 0
-968 969 970 0
-968 -969 -970 0
871 971 -972 0
871 -971 972 0
-871 971 972 0
-871 -971 -972 0
973 974 -975 0
973 -974 975 0
-973 974 975 0
-973 -974 -975 0
926 976 -977 0
926 -976 977 0
-926 976 977 0
-926 -976 -977 0
978 979 -980 0
978 -979 980 0
-978 979 980 0
-978 -979 -980 0
881 953 -981 0
881 -953 981 0
-881 953 981 0
-881 -953 -981 0
603 982 983 0
603 -982 -983 0
-603 982 -983 0
-603 -982 983 0
156 864 -984 0
156 -864 984 0
-156 864 984 0
-156 -864 -984 0
390 736 -985 0
390 -736 985 0
-390 736 985 0
-390 -736 -985 0
276 986 987 0
276 -986 -987 0
-276 986 -987 0
-276 -986 987 0
988 989 990 0
988 -989 -990 0
-988 989 -990 0
-988 -989 990 0
431 991 992 0
431 -991 -992 0
-431 991 -992 0
-431 -991 992 0
303 648 993 0
303 -648 -993 0
-303 648 -993 0
-303 -648 993 0
138 675 -875 0
138 -675 875 0
-138 675 875 0
-138 -675 -875 0
829 866 877 0
829 -866 -877 0
-829 866 -877 0
-829 -866 877 0
649 994 995 0
649 -994 -995 0
-649 994 -995 0
-649 -994 995 0
166 413 -996 0
166 -413 996 0
-166 413 996 0
-166 -413 -996 0
997 998 999 0
997 -998 -999 0
-997 998 -999 0
-997 -998 999 0
723 1000 -1001 0
723 -1000 1001 0
-723 1000 1001 0
-723 -1000 -1001 0
811 1002 -1003 0
811 -1002 1003 0
-811 1002 1003 0
-811 -1002 -1003 0
147 466 1004 0
147 -466 -1004 0
-147 466 -1004 0
-147 -466 1004 0
687 1005 -1006 0
687 -1005 1006 0
-687 1005 1006 0
-687 -1005 -1006 0
126 720 -1007 0
126 -720 1007 0
-126 720 1007 0
-126 -720 -1007 0
489 1008 -1009 0
489 -1008 1009 0
-489 1008 1009 0
-489 -1008 -1009 0
958 1010 -1011 0
958 -1010 1011 0
-958 1010 1011 0
-958 -1010 -1011 0
85 839 1012 0
85 -839 -1012 0
-85 839 -1012 0
-85 -839 1012 0
686 1013 1014 0
686 -1013 -1014 0
-686 1013 -1014 0
-686 -1013 1014 0
89 1015 -1016 0
89 -1015 1016 0
-89 1015 1016 0
-89 -1015 -1016 0
1017 1018 1019 0
1017 -1018 -1019 0
-1017 1018 -1019 0
-1017 -1018 1019 0
682 1020 -1021 0
682 -1020 1021 0
-682 1020 1021 0
-682 -1020 -1021 0
296 641 -1022 0
296 -641 1022 0
-296 641 1022 0
-296 -641 -1022 0
270 391 1023 0
270 -391 -1023 0
-270 391 -1023 0
-270 -391 1023 0
386 1024 1025 0
386 -1024 -1025 0
-386 1024 -1025 0
-386 -1024 1025 0
143 417 -741 0
143 -417 741 0
-143 417 741 0
-143 -417 -741 0
879 1026 1027 0
879 -1026 -1027 0
-879 1026 -1027 0
-879 -1026 1027 0
1028 1029 -1030 0
1028 -1029 1030 0
-1028 1029 1030 0
-1028 -1029 -1030 0
83 490 1031 0
83 -490 -1031 0
-83 490 -1031 0
-83 -490 1031 0
281 480 1032 0
281 -480 -1032 0
-281 480 -1032 0
-281 -480 1032 0
939 1033 1034 0
939 -1033 -1034 0
-939 1033 -1034 0
-939 -1033 1034 0
234 646 1035 0
234 -646 -1035 0
-234 646 -1035 0
-234 -646 1035 0
1036 1037 1038 0
1036 -1037 -1038 0
-1036 1037 -1038 0
-1036 -1037 1038 0
278 1039 -1040 0
278 -1039 1040 0
-278 1039 1040 0
-278 -1039 -1040 0
254 721 -1041 0
254 -721 1041 0
-254 721 1041 0
-254 -721 -1041 0
201 1042 1043 0
201 -1042 -1043 0
-201 1042 -1043 0
-201 -1042 1043 0
920 954 1010 0
920 -954 -1010 0
-920 954 -1010 0
-920 -954 1010 0
345 997 1044 0
345 -997 -1044 0
-345 997 -1044 0
-345 -997 1044 0
1045 1046 1047 0
1045 -1046 -1047 0
-1045 1046 -1047 0
-1045 -1046 1047 0
7 1048 1049 0
7 -1048 -1049 0
-7 1048 -1049 0
-7 -1048 1049 0
803 1028 -1050 0
803 -1028 1050 0
-803 1028 1050 0
-803 -1028 -1050 0
232 319 481 0
232 -319 -481 0
-232 319 -481 0
-232 -319 481 0
57 748 1051 0
57 -748 -1051 0
-57 748 -1051 0
-57 -748 1051 0
1039 1052 -1053 0
1039 -1052 1053 0
-1039 1052 1053 0
-1039 -1052 -1053 0
907 1054 1055 0
907 -1054 -1055 0
-907 1054 -1055 0
-907 -1054 1055 0
495 874 -1056 0
495 -874 1056 0
-495 874 1056 0
-495 -874 -1056 0
139 456 -520 0
139 -456 520 0
-139 456 520 0
-139 -456 -520 0
72 633 1057 0
72 -633 -1057 0
-72 633 -1057 0
-72 -633 1057 0
403 909 1035 0
403 -909 -1035 0
-403 909 -1035 0
-403 -909 1035 0
134 815 1058 0
134 -815 -1058 0
-134 815 -1058 0
-134 -815 1058 0
122 1059 -1060 0
122 -1059 1060 0
-122 1059 1060 0
-122 -1059 -1060 0
765 1061 1062 0
765 -1061 -1062 0
-765 1061 -1062 0
-765 -1061 1062 0
186 853 1063 0
186 -853 -1063 0
-186 853 -1063 0
-186 -853 1063 0
816 1064 -1065 0
816 -1064 1065 0
-816 1064 1065 0
-816 -1064 -1065 0
1066 1067 -1068 0
1066 -1067 1068 0
-1066 1067 1068 0
-1066 -1067 -1068 0
542 1069 1070 0
542 -1069 -1070 0
-542 1069 -1070 0
-542 -1069 1070 0
500 1071 -1072 0
500 -1071 1072 0
-500 1071 1072 0
-500 -1071 -1072 0
153 1073 1074 0
153 -1073 -1074 0
-153 1073 -1074 0
-153 -1073 1074 0
1036 1075 -1076 0
1036 -1075 1076 0
-1036 1075 1076 0
-1036 -1075 -1076 0
585 882 -935 0
585 -882 935 0
-585 882 935 0
-585 -882 -935 0
140 612 1077 0
140 -612 -1077 0
-140 612 -1077 0
-140 -612 1077 0
673 793 1078 0
673 -793 -1078 0
-673 793 -1078 0
-673 -793 1078 0
1079 1080 1081 0
1079 -1080 -1081 0
-1079 1080 -1081 0
-1079 -1080 1081 0
33 886 1005 0
33 -886 -1005 0
-33 886 -1005 0
-33 -886 1005 0
314 656 965 0
314 -656 -965 0
-314 656 -965 0
-314 -656 965 0
1082 1083 1084 0
1082 -1083 -1084 0
-1082 1083 -1084 0
-1082 -1083 1084 0
596 613 -1085 0
596 -613 1085 0
-596 613 1085 0
-596 -613 -1085 0
257 968 1086 0
257 -968 -1086 0
-257 968 -1086 0
-257 -968 1086 0
1087 1088 -1089 0
1087 -1088 1089 0
-1087 1088 1089 0
-1087 -1088 -1089 0
568 608 -1064 0
568 -608 1064 0
-568 608 1064 0
-568 -608 -1064 0
1041 1090 -1091 0
1041 -1090 1091 0
-1041 1090 1091 0
-1041 -1090 -1091 0
193 1092 -1093 0
193 -1092 1093 0
-193 1092 1093 0
-193 -1092 -1093 0
951 1023 -1094 0
951 -1023 1094 0
-951 1023 1094 0
-951 -1023 -1094 0
800 1095 1096 0
800 -1095 -1096 0
-800 1095 -1096 0
-800 -1095 1096 0
1097 1098 1099 0
1097 -1098 -1099 0
-1097 1098 -1099 0
-1097 -1098 1099 0
1100 1101 1102 0
1100 -1101 -1102 0
-1100 1101 -1102 0
-1100 -1101 1102 0
47 279 -657 0
47 -279 657 0
-47 279 657 0
-47 -279 -657 0
454 1103 1104 0
454 -1103 -1104 0
-454 1103 -1104 0
-454 -1103 1104 0
647 1105 -1106 0
647 -1105 1106 0
-647 1105 1106 0
-647 -1105 -1106 0
786 842 -1056 0
786 -842 1056 0
-786 842 1056 0
-786 -842 -1056 0
242 1107 -1108 0
242 -1107 1108 0
-242 1107 1108 0
-242 -1107 -1108 0
330 934 -1109 0
330 -934 1109 0
-330 934 1109 0
-330 -934 -1109 0
609 1110 -1111 0
609 -1110 1111 0
-609 1110 1111 0
-609 -1110 -1111 0
304 918 -1103 0
304 -918 1103 0
-304 918 1103 0
-304 -918 -1103 0
840 1112 -1113 0
840 -1112 1113 0
-840 1112 1113 0
-840 -1112 -1113 0
534 1114 1115 0
534 -1114 -1115 0
-534 1114 -1115 0
-534 -1114 1115 0
944 1116 -1117 0
944 -1116 1117 0
-944 1116 1117 0
-944 -1116 -1117 0
551 1118 -1119 0
551 -1118 1119 0
-551 1118 1119 0
-551 -1118 -1119 0
643 812 1120 0
643 -812 -1120 0
-643 812 -1120 0
-643 -812 1120 0
211 1121 -1122 0
211 -1121 1122 0
-211 1121 1122 0
-211 -1121 -1122 0
1037 1123 -1124 0
1037 -1123 1124 0
-1037 1123 1124 0
-1037 -1123 -1124 0
774 1125 1126 0
774 -1125 -1126 0
-774 1125 -1126 0
-774 -1125 1126 0
560 1127 1128 0
560 -1127 -1128 0
-560 1127 -1128 0
-560 -1127 1128 0
1129 1130 1131 0
1129 -1130 -1131 0
-1129 1130 -1131 0
-1129 -1130 1131 0
1132 1133 1134 0
1132 -1133 -1134 0
-1132 1133 -1134 0
-1132 -1133 1134 0
856 1135 -1136 0
856 -1135 1136 0
-856 1135 1136 0
-856 -1135 -1136 0
616 691 -768 0
616 -691 768 0
-616 691 768 0
-616 -691 -768 0
988 1137 1138 0
988 -1137 -1138 0
-988 1137 -1138 0
-988 -1137 1138 0
717 1139 -1140 0
717 -1139 1140 0
-717 1139 1140 0
-717 -1139 -1140 0
220 1061 -1141 0
220 -1061 1141 0
-220 1061 1141 0
-220 -1061 -1141 0
1132 1142 -1143 0
1132 -1142 1143 0
-1132 1142 1143 0
-1132 -1142 -1143 0
523 619 1144 0
523 -619 -1144 0
-523 619 -1144 0
-523 -619 1144 0
627 1145 1146 0
627 -1145 -1146 0
-627 1145 -1146 0
-627 -1145 1146 0
184 414 1147 0
184 -414 -1147 0
-184 414 -1147 0
-184 -414 1147 0
1148 1149 1150 0
1148 -1149 -1150 0
-1148 1149 -1150 0
-1148 -1149 1150 0
315 518 -1151 0
315 -518 1151 0
-315 518 1151 0
-315 -518 -1151 0
70 510 -1152 0
70 -510 1152 0
-70 510 1152 0
-70 -510 -1152 0
1153 1154 -1155 0
1153 -1154 1155 0
-1153 1154 1155 0
-1153 -1154 -1155 0
48 991 1156 0
48 -991 -1156 0
-48 991 -1156 0
-48 -991 1156 0
1157 1158 1159 0
1157 -1158 -1159 0
-1157 1158 -1159 0
-1157 -1158 1159 0
532 1045 1160 0
532 -1045 -1160 0
-532 1045 -1160 0
-532 -1045 1160 0
1011 1161 1162 0
1011 -1161 -1162 0
-1011 1161 -1162 0
-1011 -1161 1162 0
665 713 -1163 0
665 -713 1163 0
-665 713 1163 0
-665 -713 -1163 0
271 1164 -1165 0
271 -1164 1165 0
-271 1164 1165 0
-271 -1164 -1165 0
381 827 1166 0
381 -827 -1166 0
-381 827 -1166 0
-381 -827 1166 0
202 1167 -1168 0
202 -1167 1168 0
-202 1167 1168 0
-202 -1167 -1168 0
783 1169 1170 0
783 -1169 -1170 0
-783 1169 -1170 0
-783 -1169 1170 0
467 922 -1171 0
467 -922 1171 0
-467 922 1171 0
-467 -922 -1171 0
1015 1172 1173 0
1015 -1172 -1173 0
-1015 1172 -1173 0
-1015 -1172 1173 0
1169 1174 -1175 0
1169 -1174 1175 0
-1169 1174 1175 0
-1169 -1174 -1175 0
1057 1176 -1177 0
1057 -1176 1177 0
-1057 1176 1177 0
-1057 -1176 -1177 0
436 1178 1179 0
436 -1178 -1179 0
-436 1178 -1179 0
-436 -1178 1179 0
1161 1180 1181 0
1161 -1180 -1181 0
-1161 1180 -1181 0
-1161 -1180 1181 0
861 1182 1183 0
861 -1182 -1183 0
-861 1182 -1183 0
-861 -1182 1183 0
986 1029 -1184 0
986 -1029 1184 0
-986 1029 1184 0
-986 -1029 -1184 0
703 1020 -1185 0
703 -1020 1185 0
-703 1020 1185 0
-703 -1020 -1185 0
1082 1186 1187 0
1082 -1186 -1187 0
-1082 1186 -1187 0
-1082 -1186 1187 0
912 1024 1188 0
912 -1024 -1188 0
-912 1024 -1188 0
-912 -1024 1188 0
813 1189 1190 0
813 -1189 -1190 0
-813 1189 -1190 0
-813 -1189 1190 0
78 539 1191 0
78 -539 -1191 0
-78 539 -1191 0
-78 -539 1191 0
857 1139 1192 0
857 -1139 -1192 0
-857 1139 -1192 0
-857 -1139 1192 0
1170 1193 1194 0
1170 -1193 -1194 0
-1170 1193 -1194 0
-1170 -1193 1194 0
614 929 1195 0
614 -929 -1195 0
-614 929 -1195 0
-614 -929 1195 0
444 956 1196 0
444 -956 -1196 0
-444 956 -1196 0
-444 -956 1196 0
1197 1198 -1199 0
1197 -1198 1199 0
-1197 1198 1199 0
-1197 -1198 -1199 0
763 880 -1200 0
763 -880 1200 0
-763 880 1200 0
-763 -880 -1200 0
285 297 752 0
285 -297 -752 0
-285 297 -752 0
-285 -297 752 0
1201 1202 -1203 0
1201 -1202 1203 0
-1201 1202 1203 0
-1201 -1202 -1203 0
337 545 -1204 0
337 -545 1204 0
-337 545 1204 0
-337 -545 -1204 0
141 344 -1205 0
141 -344 1205 0
-141 344 1205 0
-141 -344 -1205 0
1206 1207 -1208 0
1206 -1207 1208 0
-1206 1207 1208 0
-1206 -1207 -1208 0
889 1209 1210 0
889 -1209 -1210 0
-889 1209 -1210 0
-889 -1209 1210 0
363 1211 -1212 0
363 -1211 1212 0
-363 1211 1212 0
-363 -1211 -1212 0
652 1213 1214 0
652 -1213 -1214 0
-652 1213 -1214 0
-652 -1213 1214 0
1215 1216 1217 0
1215 -1216 -1217 0
-1215 1216 -1217 0
-1215 -1216 1217 0
1120 1218 1219 0
1120 -1218 -1219 0
-1120 1218 -1219 0
-1120 -1218 1219 0
113 377 586 0
113 -377 -586 0
-113 377 -586 0
-113 -377 586 0
519 1073 1220 0
519 -1073 -1220 0
-519 1073 -1220 0
-519 -1073 1220 0
162 591 1221 0
162 -591 -1221 0
-162 591 -1221 0
-162 -591 1221 0
695 832 1222 0
695 -832 -1222 0
-695 832 -1222 0
-695 -832 1222 0
610 1223 1224 0
610 -1223 -1224 0
-610 1223 -1224 0
-610 -1223 1224 0
521 1225 1226 0
521 -1225 -1226 0
-521 1225 -1226 0
-521 -1225 1226 0
282 674 1227 0
282 -674 -1227 0
-282 674 -1227 0
-282 -674 1227 0
286 438 1228 0
286 -438 -1228 0
-286 438 -1228 0
-286 -438 1228 0
410 1229 1230 0
410 -1229 -1230 0
-410 1229 -1230 0
-410 -1229 1230 0
493 1231 -1232 0
493 -1231 1232 0
-493 1231 1232 0
-493 -1231 -1232 0
1006 1140 -1233 0
1006 -1140 1233 0
-1006 1140 1233 0
-1006 -1140 -1233 0
331 862 1234 0
331 -862 -1234 0
-331 862 -1234 0
-331 -862 1234 0
20 1085 -1235 0
20 -1085 1235 0
-20 1085 1235 0
-20 -1085 -1235 0
1236 1237 -1238 0
1236 -1237 1238 0
-1236 1237 1238 0
-1236 -1237 -1238 0
99 1118 -1239 0
99 -1118 1239 0
-99 1118 1239 0
-99 -1118 -1239 0
348 766 -1240 0
348 -766 1240 0
-348 766 1240 0
-348 -766 -1240 0
1239 1241 1242 0
1239 -1241 -1242 0
-1239 1241 -1242 0
-1239 -1241 1242 0
494 1051 -1196 0
494 -1051 1196 0
-494 1051 1196 0
-494 -1051 -1196 0
328 945 -1243 0
328 -945 1243 0
-328 945 1243 0
-328 -945 -1243 0
129 1166 1244 0
129 -1166 -1244 0
-129 1166 -1244 0
-129 -1166 1244 0
963 1245 -1246 0
963 -1245 1246 0
-963 1245 1246 0
-963 -1245 -1246 0
710 1247 1248 0
710 -1247 -1248 0
-710 1247 -1248 0
-710 -1247 1248 0
177 372 858 0
177 -372 -858 0
-177 372 -858 0
-177 -372 858 0
580 1129 -1249 0
580 -1129 1249 0
-580 1129 1249 0
-580 -1129 -1249 0
354 583 -1218 0
354 -583 1218 0
-354 583 1218 0
-354 -583 -1218 0
790 1250 -1251 0
790 -1250 1251 0
-790 1250 1251 0
-790 -1250 -1251 0
384 694 1220 0
384 -694 -1220 0
-384 694 -1220 0
-384 -694 1220 0
86 1252 -1253 0
86 -1252 1253 0
-86 1252 1253 0
-86 -1252 -1253 0
1090 1123 -1254 0
1090 -1123 1254 0
-1090 1123 1254 0
-1090 -1123 -1254 0
848 1112 -1233 0
848 -1112 1233 0
-848 1112 1233 0
-848 -1112 -1233 0
735 1255 1256 0
735 -1255 -1256 0
-735 1255 -1256 0
-735 -1255 1256 0
1044 1148 -1250 0
1044 -1148 1250 0
-1044 1148 1250 0
-1044 -1148 -1250 0
930 1257 1258 0
930 -1257 -1258 0
-930 1257 -1258 0
-930 -1257 1258 0
865 961 -1000 0
865 -961 1000 0
-865 961 1000 0
-865 -961 -1000 0
843 903 -1110 0
843 -903 1110 0
-843 903 1110 0
-843 -903 -1110 0
611 1105 1259 0
611 -1105 -1259 0
-611 1105 -1259 0
-611 -1105 1259 0
36 1260 -1261 0
36 -1260 1261 0
-36 1260 1261 0
-36 -1260 -1261 0
569 780 1141 0
569 -780 -1141 0
-569 780 -1141 0
-569 -780 1141 0
80 625 1262 0
80 -625 -1262 0
-80 625 -1262 0
-80 -625 1262 0
769 771 -1263 0
769 -771 1263 0
-769 771 1263 0
-769 -771 -1263 0
375 1264 1265 0
375 -1264 -1265 0
-375 1264 -1265 0
-375 -1264 1265 0
300 969 -1266 0
300 -969 1266 0
-300 969 1266 0
-300 -969 -1266 0
898 1062 -1267 0
898 -1062 1267 0
-898 1062 1267 0
-898 -1062 -1267 0
457 552 -1268 0
457 -552 1268 0
-457 552 1268 0
-457 -552 -1268 0
405 559 -1269 0
405 -559 1269 0
-405 559 1269 0
-405 -559 -1269 0
16 630 1270 0
16 -630 -1270 0
-16 630 -1270 0
-16 -630 1270 0
1271 1272 1273 0
1271 -1272 -1273 0
-1271 1272 -1273 0
-1271 -1272 1273 0
1013 1135 1176 0
1013 -1135 -1176 0
-1013 1135 -1176 0
-1013 -1135 1176 0
679 757 1274 0
679 -757 -1274 0
-679 757 -1274 0
-679 -757 1274 0
424 1252 -1275 0
424 -1252 1275 0
-424 1252 1275 0
-424 -1252 -1275 0
635 1245 -1276 0
635 -1245 1276 0
-635 1245 1276 0
-635 -1245 -1276 0
661 1277 1278 0
661 -1277 -1278 0
-661 1277 -1278 0
-661 -1277 1278 0
825 1276 -1279 0
825 -1276 1279 0
-825 1276 1279 0
-825 -1276 -1279 0
905 1280 -1281 0
905 -1280 1281 0
-905 1280 1281 0
-905 -1280 -1281 0
1282 1283 1284 0
1282 -1283 -1284 0
-1282 1283 -1284 0
-1282 -1283 1284 0
555 1285 1286 0
555 -1285 -1286 0
-555 1285 -1286 0
-555 -1285 1286 0
411 1206 -1287 0
411 -1206 1287 0
-411 1206 1287 0
-411 -1206 -1287 0
666 1271 1288 0
666 -1271 -1288 0
-666 1271 -1288 0
-666 -1271 1288 0
288 631 -1289 0
288 -631 1289 0
-288 631 1289 0
-288 -631 -1289 0
830 1255 -1290 0
830 -1255 1290 0
-830 1255 1290 0
-830 -1255 -1290 0
557 806 -1291 0
557 -806 1291 0
-557 806 1291 0
-557 -806 -1291 0
368 1042 -1292 0
368 -1042 1292 0
-368 1042 1292 0
-368 -1042 -1292 0
1026 1156 -1244 0
1026 -1156 1244 0
-1026 1156 1244 0
-1026 -1156 -1244 0
178 1227 -1293 0
178 -1227 1293 0
-178 1227 1293 0
-178 -1227 -1293 0
851 1294 -1295 0
851 -1294 1295 0
-851 1294 1295 0
-851 -1294 -1295 0
890 1182 1296 0
890 -1182 -1296 0
-890 1182 -1296 0
-890 -1182 1296 0
415 504 -1297 0
415 -504 1297 0
-415 504 1297 0
-415 -504 -1297 0
316 326 996 0
316 -326 -996 0
-316 326 -996 0
-316 -326 996 0
697 1298 1299 0
697 -1298 -1299 0
-697 1298 -1299 0
-697 -1298 1299 0
989 1300 1301 0
989 -1300 -1301 0
-989 1300 -1301 0
-989 -1300 1301 0
899 1186 -1302 0
899 -1186 1302 0
-899 1186 1302 0
-899 -1186 -1302 0
235 688 -1303 0
235 -688 1303 0
-235 688 1303 0
-235 -688 -1303 0
638 833 1040 0
638 -833 -1040 0
-638 833 -1040 0
-638 -833 1040 0
44 1077 1189 0
44 -1077 -1189 0
-44 1077 -1189 0
-44 -1077 1189 0
124 1304 1305 0
124 -1304 -1305 0
-124 1304 -1305 0
-124 -1304 1305 0
406 992 -1094 0
406 -992 1094 0
-406 992 1094 0
-406 -992 -1094 0
543 1306 -1307 0
543 -1306 1307 0
-543 1306 1307 0
-543 -1306 -1307 0
696 1071 -1257 0
696 -1071 1257 0
-696 1071 1257 0
-696 -1071 -1257 0
567 1100 1264 0
567 -1100 -1264 0
-567 1100 -1264 0
-567 -1100 1264 0
209 393 1308 0
209 -393 -1308 0
-209 393 -1308 0
-209 -393 1308 0
212 1309 -1310 0
212 -1309 1310 0
-212 1309 1310 0
-212 -1309 -1310 0
1243 1282 -1311 0
1243 -1282 1311 0
-1243 1282 1311 0
-1243 -1282 -1311 0
893 1312 -1313 0
893 -1312 1313 0
-893 1312 1313 0
-893 -1312 -1313 0
151 973 1314 0
151 -973 -1314 0
-151 973 -1314 0
-151 -973 1314 0
1116 1315 -1316 0
1116 -1315 1316 0
-1116 1315 1316 0
-1116 -1315 -1316 0
433 1125 1317 0
433 -1125 -1317 0
-433 1125 -1317 0
-433 -1125 1317 0
870 1048 1318 0
870 -1048 -1318 0
-870 1048 -1318 0
-870 -1048 1318 0
1319 1320 -1321 0
1319 -1320 1321 0
-1319 1320 1321 0
-1319 -1320 -1321 0
135 1322 1323 0
135 -1322 -1323 0
-135 1322 -1323 0
-135 -1322 1323 0
425 1312 1324 0
425 -1312 -1324 0
-425 1312 -1324 0
-425 -1312 1324 0
15 419 -1325 0
15 -419 1325 0
-15 419 1325 0
-15 -419 -1325 0
240 726 1033 0
240 -726 -1033 0
-240 726 -1033 0
-240 -726 1033 0
883 1251 1326 0
883 -1251 -1326 0
-883 1251 -1326 0
-883 -1251 1326 0
998 1017 -1311 0
998 -1017 1311 0
-998 1017 1311 0
-998 -1017 -1311 0
753 807 -960 0
753 -807 960 0
-753 807 960 0
-753 -807 -960 0
358 738 1095 0
358 -738 -1095 0
-358 738 -1095 0
-358 -738 1095 0
1069 1260 -1327 0
1069 -1260 1327 0
-1069 1260 1327 0
-1069 -1260 -1327 0
745 904 1328 0
745 -904 -1328 0
-745 904 -1328 0
-745 -904 1328 0
746 1329 1330 0
746 -1329 -1330 0
-746 1329 -1330 0
-746 -1329 1330 0
107 908 1083 0
107 -908 -1083 0
-107 908 -1083 0
-107 -908 1083 0
91 1331 1332 0
91 -1331 -1332 0
-91 1331 -1332 0
-91 -1331 1332 0
189 932 1333 0
189 -932 -1333 0
-189 932 -1333 0
-189 -932 1333 0
58 305 422 0
58 -305 -422 0
-58 305 -422 0
-58 -305 422 0
429 1334 -1335 0
429 -1334 1335 0
-429 1334 1335 0
-429 -1334 -1335 0
814 1336 1337 0
814 -1336 -1337 0
-814 1336 -1337 0
-814 -1336 1337 0
90 836 -957 0
90 -836 957 0
-90 836 957 0
-90 -836 -957 0
420 817 -1191 0
420 -817 1191 0
-420 817 1191 0
-420 -817 -1191 0
94 434 -1183 0
94 -434 1183 0
-94 434 1183 0
-94 -434 -1183 0
949 1338 -1339 0
949 -1338 1339 0
-949 1338 1339 0
-949 -1338 -1339 0
749 910 923 0
749 -910 -923 0
-749 910 -923 0
-749 -910 923 0
491 931 -1317 0
491 -931 1317 0
-491 931 1317 0
-491 -931 -1317 0
163 222 -1340 0
163 -222 1340 0
-163 222 1340 0
-163 -222 -1340 0
1063 1222 -1258 0
1063 -1222 1258 0
-1063 1222 1258 0
-1063 -1222 -1258 0
443 933 -1341 0
443 -933 1341 0
-443 933 1341 0
-443 -933 -1341 0
601 1240 -1342 0
601 -1240 1342 0
-601 1240 1342 0
-601 -1240 -1342 0
1343 1344 -1345 0
1343 -1344 1345 0
-1343 1344 1345 0
-1343 -1344 -1345 0
103 634 -1346 0
103 -634 1346 0
-103 634 1346 0
-103 -634 -1346 0
919 1046 1347 0
919 -1046 -1347 0
-919 1046 -1347 0
-919 -1046 1347 0
1059 1193 1348 0
1059 -1193 -1348 0
-1059 1193 -1348 0
-1059 -1193 1348 0
127 1349 -1350 0
127 -1349 1350 0
-127 1349 1350 0
-127 -1349 -1350 0
727 1021 1351 0
727 -1021 -1351 0
-727 1021 -1351 0
-727 -1021 1351 0
770 1352 -1353 0
770 -1352 1353 0
-770 1352 1353 0
-770 -1352 -1353 0
6 455 1174 0
6 -455 -1174 0
-6 455 -1174 0
-6 -455 1174 0
852 1354 -1355 0
852 -1354 1355 0
-852 1354 1355 0
-852 -1354 -1355 0
1356 1357 1358 0
1356 -1357 -1358 0
-1356 1357 -1358 0
-1356 -1357 1358 0
535 1113 1359 0
535 -1113 -1359 0
-535 1113 -1359 0
-535 -1113 1359 0
289 1221 -1360 0
289 -1221 1360 0
-289 1221 1360 0
-289 -1221 -1360 0
701 1334 1361 0
701 -1334 -1361 0
-701 1334 -1361 0
-701 -1334 1361 0
711 1092 -1362 0
711 -1092 1362 0
-711 1092 1362 0
-711 -1092 -1362 0
626 1137 -1363 0
626 -1137 1363 0
-626 1137 1363 0
-626 -1137 -1363 0
1225 1277 1364 0
1225 -1277 -1364 0
-1225 1277 -1364 0
-1225 -1277 1364 0
1107 1157 -1213 0
1107 -1157 1213 0
-1107 1157 1213 0
-1107 -1157 -1213 0
243 921 1365 0
243 -921 -1365 0
-243 921 -1365 0
-243 -921 1365 0
1025 1079 -1366 0
1025 -1079 1366 0
-1025 1079 1366 0
-1025 -1079 -1366 0
959 1267 -1367 0
959 -1267 1367 0
-959 1267 1367 0
-959 -1267 -1367 0
408 1197 -1368 0
408 -1197 1368 0
-408 1197 1368 0
-408 -1197 -1368 0
472 1369 -1370 0
472 -1369 1370 0
-472 1369 1370 0
-472 -1369 -1370 0
469 1371 1372 0
469 -1371 -1372 0
-469 1371 -1372 0
-469 -1371 1372 0
223 1331 -1349 0
223 -1331 1349 0
-223 1331 1349 0
-223 -1331 -1349 0
1007 1308 1373 0
1007 -1308 -1373 0
-1007 1308 -1373 0
-1007 -1308 1373 0
38 831 -924 0
38 -831 924 0
-38 831 924 0
-38 -831 -924 0
772 1018 -1374 0
772 -1018 1374 0
-772 1018 1374 0
-772 -1018 -1374 0
8 892 1153 0
8 -892 -1153 0
-8 892 -1153 0
-8 -892 1153 0
505 1231 -1236 0
505 -1231 1236 0
-505 1231 1236 0
-505 -1231 -1236 0
653 900 1172 0
653 -900 -1172 0
-653 900 -1172 0
-653 -900 1172 0
102 561 -1014 0
102 -561 1014 0
-102 561 1014 0
-102 -561 -1014 0
1290 1375 1376 0
1290 -1375 -1376 0
-1290 1375 -1376 0
-1290 -1375 1376 0
511 1298 1377 0
511 -1298 -1377 0
-511 1298 -1377 0
-511 -1298 1377 0
1378 1379 -1380 0
1378 -1379 1380 0
-1378 1379 1380 0
-1378 -1379 -1380 0
116 1270 -1381 0
116 -1270 1381 0
-116 1270 1381 0
-116 -1270 -1381 0
273 1382 -1383 0
273 -1382 1383 0
-273 1382 1383 0
-273 -1382 -1383 0
501 1341 -1384 0
501 -1341 1384 0
-501 1341 1384 0
-501 -1341 -1384 0
130 642 778 0
130 -642 -778 0
-130 642 -778 0
-130 -642 778 0
708 818 -947 0
708 -818 947 0
-708 818 947 0
-708 -818 -947 0
339 970 -1350 0
339 -970 1350 0
-339 970 1350 0
-339 -970 -1350 0
794 1142 -1385 0
794 -1142 1385 0
-794 1142 1385 0
-794 -1142 -1385 0
581 588 -1386 0
581 -588 1386 0
-581 588 1386 0
-581 -588 -1386 0
229 451 1387 0
229 -451 -1387 0
-229 451 -1387 0
-229 -451 1387 0
332 704 -837 0
332 -704 837 0
-332 704 837 0
-332 -704 -837 0
187 676 1388 0
187 -676 -1388 0
-187 676 -1388 0
-187 -676 1388 0
976 1173 -1389 0
976 -1173 1389 0
-976 1173 1389 0
-976 -1173 -1389 0
45 1390 -1391 0
45 -1390 1391 0
-45 1390 1391 0
-45 -1390 -1391 0
845 913 1392 0
845 -913 -1392 0
-845 913 -1392 0
-845 -913 1392 0
1336 1352 1382 0
1336 -1352 -1382 0
-1336 1352 -1382 0
-1336 -1352 1382 0
846 1325 1393 0
846 -1325 -1393 0
-846 1325 -1393 0
-846 -1325 1393 0
435 1149 1394 0
435 -1149 -1394 0
-435 1149 -1394 0
-435 -1149 1394 0
1080 1395 -1396 0
1080 -1395 1396 0
-1080 1395 1396 0
-1080 -1395 -1396 0
524 1366 -1397 0
524 -1366 1397 0
-524 1366 1397 0
-524 -1366 -1397 0
458 1304 1398 0
458 -1304 -1398 0
-458 1304 -1398 0
-458 -1304 1398 0
605 1164 1399 0
605 -1164 -1399 0
-605 1164 -1399 0
-605 -1164 1399 0
346 589 1400 0
346 -589 -1400 0
-346 589 -1400 0
-346 -589 1400 0
950 1401 -1402 0
950 -1401 1402 0
-950 1401 1402 0
-950 -1401 -1402 0
1074 1403 -1404 0
1074 -1403 1404 0
-1074 1403 1404 0
-1074 -1403 -1404 0
894 1405 1406 0
894 -1405 -1406 0
-894 1405 -1406 0
-894 -1405 1406 0
1097 1101 -1407 0
1097 -1101 1407 0
-1097 1101 1407 0
-1097 -1101 -1407 0
1408 1409 -1410 0
1408 -1409 1410 0
-1408 1409 1410 0
-1408 -1409 -1410 0
724 1184 1411 0
724 -1184 -1411 0
-724 1184 -1411 0
-724 -1184 1411 0
1412 1413 1414 0
1412 -1413 -1414 0
-1412 1413 -1414 0
-1412 -1413 1414 0
914 1319 -1415 0
914 -1319 1415 0
-914 1319 1415 0
-914 -1319 -1415 0
872 1124 1318 0
872 -1124 -1318 0
-872 1124 -1318 0
-872 -1124 1318 0
104 750 819 0
104 -750 -819 0
-104 750 -819 0
-104 -750 819 0
317 486 -662 0
317 -486 662 0
-317 486 662 0
-317 -486 -662 0
378 1030 -1151 0
378 -1030 1151 0
-378 1030 1151 0
-378 -1030 -1151 0
636 1314 1343 0
636 -1314 -1343 0
-636 1314 -1343 0
-636 -1314 1343 0
709 1050 -1416 0
709 -1050 1416 0
-709 1050 1416 0
-709 -1050 -1416 0
241 309 1237 0
241 -309 -1237 0
-241 309 -1237 0
-241 -309 1237 0
114 1371 -1417 0
114 -1371 1417 0
-114 1371 1417 0
-114 -1371 -1417 0
53 361 1104 0
53 -361 -1104 0
-53 361 -1104 0
-53 -361 1104 0
759 834 1234 0
759 -834 -1234 0
-759 834 -1234 0
-759 -834 1234 0
540 911 -1418 0
540 -911 1418 0
-540 911 1418 0
-540 -911 -1418 0
247 1253 -1378 0
247 -1253 1378 0
-247 1253 1378 0
-247 -1253 -1378 0
470 937 -1241 0
470 -937 1241 0
-470 937 1241 0
-470 -937 -1241 0
1279 1329 1419 0
1279 -1329 -1419 0
-1279 1329 -1419 0
-1279 -1329 1419 0
978 1420 1421 0
978 -1420 -1421 0
-978 1420 -1421 0
-978 -1420 1421 0
1422 1423 -1424 0
1422 -1423 1424 0
-1422 1423 1424 0
-1422 -1423 -1424 0
1054 1367 -1425 0
1054 -1367 1425 0
-1054 1367 1425 0
-1054 -1367 -1425 0
283 338 -392 0
283 -338 392 0
-283 338 392 0
-283 -338 -392 0
215 512 -1117 0
215 -512 1117 0
-215 512 1117 0
-215 -512 -1117 0
584 667 1293 0
584 -667 -1293 0
-584 667 -1293 0
-584 -667 1293 0
1412 1426 1427 0
1412 -1426 -1427 0
-1412 1426 -1427 0
-1412 -1426 1427 0
81 250 1242 0
81 -250 -1242 0
-81 250 -1242 0
-81 -250 1242 0
587 987 -1389 0
587 -987 1389 0
-587 987 1389 0
-587 -987 -1389 0
142 805 1428 0
142 -805 -1428 0
-142 805 -1428 0
-142 -805 1428 0
917 1294 -1390 0
917 -1294 1390 0
-917 1294 1390 0
-917 -1294 -1390 0
507 788 854 0
507 -788 -854 0
-507 788 -854 0
-507 -788 854 0
468 548 -791 0
468 -548 791 0
-468 548 791 0
-468 -548 -791 0
27 84 -1192 0
27 -84 1192 0
-27 84 1192 0
-27 -84 -1192 0
192 773 1152 0
192 -773 -1152 0
-192 773 -1152 0
-192 -773 1152 0
1291 1429 -1430 0
1291 -1429 1430 0
-1291 1429 1430 0
-1291 -1429 -1430 0
698 1232 1431 0
698 -1232 -1431 0
-698 1232 -1431 0
-698 -1232 1431 0
277 650 1432 0
277 -650 -1432 0
-277 650 -1432 0
-277 -650 1432 0
1075 1397 1433 0
1075 -1397 -1433 0
-1075 1397 -1433 0
-1075 -1397 1433 0
775 787 1177 0
775 -787 -1177 0
-775 787 -1177 0
-775 -787 1177 0
1254 1434 1435 0
1254 -1434 -1435 0
-1254 1434 -1435 0
-1254 -1434 1435 0
690 1012 -1093 0
690 -1012 1093 0
-690 1012 1093 0
-690 -1012 -1093 0
266 680 -1130 0
266 -680 1130 0
-266 680 1130 0
-266 -680 -1130 0
206 1145 -1436 0
206 -1145 1436 0
-206 1145 1436 0
-206 -1145 -1436 0
59 1160 -1285 0
59 -1160 1285 0
-59 1160 1285 0
-59 -1160 -1285 0
439 536 1437 0
439 -536 -1437 0
-439 536 -1437 0
-439 -536 1437 0
549 1235 1268 0
549 -1235 -1268 0
-549 1235 -1268 0
-549 -1235 1268 0
1146 1327 -1438 0
1146 -1327 1438 0
-1146 1327 1438 0
-1146 -1327 -1438 0
1180 1439 1440 0
1180 -1439 -1440 0
-1180 1439 -1440 0
-1180 -1439 1440 0
292 873 -1407 0
292 -873 1407 0
-292 873 1407 0
-292 -873 -1407 0
1297 1386 1441 0
1297 -1386 -1441 0
-1297 1386 -1441 0
-1297 -1386 1441 0
350 1185 1442 0
350 -1185 -1442 0
-350 1185 -1442 0
-350 -1185 1442 0
92 171 -185 0
92 -171 185 0
-92 171 185 0
-92 -171 -185 0
1027 1266 1433 0
1027 -1266 -1433 0
-1027 1266 -1433 0
-1027 -1266 1433 0
572 915 985 0
572 -915 -985 0
-572 915 -985 0
-572 -915 985 0
312 884 -1443 0
312 -884 1443 0
-312 884 1443 0
-312 -884 -1443 0
369 1432 -1444 0
369 -1432 1444 0
-369 1432 1444 0
-369 -1432 -1444 0
93 1278 1372 0
93 -1278 -1372 0
-93 1278 -1372 0
-93 -1278 1372 0
351 948 1305 0
351 -948 -1305 0
-351 948 -1305 0
-351 -948 1305 0
974 1119 1445 0
974 -1119 -1445 0
-974 1119 -1445 0
-974 -1119 1445 0
105 896 1205 0
105 -896 -1205 0
-105 896 -1205 0
-105 -896 1205 0
1016 1446 -1447 0
1016 -1446 1447 0
-1016 1446 1447 0
-1016 -1446 -1447 0
298 522 767 0
298 -522 -767 0
-298 522 -767 0
-298 -522 767 0
669 1272 -1448 0
669 -1272 1448 0
-669 1272 1448 0
-669 -1272 -1448 0
575 1187 -1306 0
575 -1187 1306 0
-575 1187 1306 0
-575 -1187 -1306 0
136 1420 1448 0
136 -1420 -1448 0
-136 1420 -1448 0
-136 -1420 1448 0
578 599 994 0
578 -599 -994 0
-578 599 -994 0
-578 -599 994 0
1348 1449 -1450 0
1348 -1449 1450 0
-1348 1449 1450 0
-1348 -1449 -1450 0
1309 1359 -1451 0
1309 -1359 1451 0
-1309 1359 1451 0
-1309 -1359 -1451 0
465 1060 -1373 0
465 -1060 1373 0
-465 1060 1373 0
-465 -1060 -1373 0
508 887 1452 0
508 -887 -1452 0
-508 887 -1452 0
-508 -887 1452 0
306 1052 1453 0
306 -1052 -1453 0
-306 1052 -1453 0
-306 -1052 1453 0
651 1114 -1344 0
651 -1114 1344 0
-651 1114 1344 0
-651 -1114 -1344 0
426 1200 1261 0
426 -1200 -1261 0
-426 1200 -1261 0
-426 -1200 1261 0
1081 1454 1455 0
1081 -1454 -1455 0
-1081 1454 -1455 0
-1081 -1454 1455 0
579 1201 1395 0
579 -1201 -1395 0
-579 1201 -1395 0
-579 -1201 1395 0
576 597 712 0
576 -597 -712 0
-576 597 -712 0
-576 -597 712 0
940 1283 -1335 0
940 -1283 1335 0
-940 1283 1335 0
-940 -1283 -1335 0
352 979 1150 0
352 -979 -1150 0
-352 979 -1150 0
-352 -979 1150 0
203 781 -809 0
203 -781 809 0
-203 781 809 0
-203 -781 -809 0
1078 1098 -1165 0
1078 -1098 1165 0
-1078 1098 1165 0
-1078 -1098 -1165 0
301 387 1428 0
301 -387 -1428 0
-301 387 -1428 0
-301 -387 1428 0
1022 1396 1456 0
1022 -1396 -1456 0
-1022 1396 -1456 0
-1022 -1396 1456 0
437 821 -1457 0
437 -821 1457 0
-437 821 1457 0
-437 -821 -1457 0
51 513 -1458 0
51 -513 1458 0
-51 513 1458 0
-51 -513 -1458 0
977 1459 1460 0
977 -1459 -1460 0
-977 1459 -1460 0
-977 -1459 1460 0
1147 1461 1462 0
1147 -1461 -1462 0
-1147 1461 -1462 0
-1147 -1461 1462 0
280 844 1463 0
280 -844 -1463 0
-280 844 -1463 0
-280 -844 1463 0
672 1338 1354 0
672 -1338 -1354 0
-672 1338 -1354 0
-672 -1338 1354 0
527 1058 -1464 0
527 -1058 1464 0
-527 1058 1464 0
-527 -1058 -1464 0
394 558 1379 0
394 -558 -1379 0
-394 558 -1379 0
-394 -558 1379 0
39 868 1167 0
39 -868 -1167 0
-39 868 -1167 0
-39 -868 1167 0
3 1127 1459 0
3 -1127 -1459 0
-3 1127 -1459 0
-3 -1127 1459 0
632 1215 1346 0
632 -1215 -1346 0
-632 1215 -1346 0
-632 -1215 1346 0
810 1144 1332 0
810 -1144 -1332 0
-810 1144 -1332 0
-810 -1144 1332 0
593 761 -1416 0
593 -761 1416 0
-593 761 1416 0
-593 -761 -1416 0
1263 1415 -1465 0
1263 -1415 1465 0
-1263 1415 1465 0
-1263 -1415 -1465 0
445 1342 1466 0
445 -1342 -1466 0
-445 1342 -1466 0
-445 -1342 1466 0
702 1457 -1467 0
702 -1457 1467 0
-702 1457 1467 0
-702 -1457 -1467 0
942 1419 -1439 0
942 -1419 1439 0
-942 1419 1439 0
-942 -1419 -1439 0
502 620 -1209 0
502 -620 1209 0
-502 620 1209 0
-502 -620 -1209 0
440 739 -1403 0
440 -739 1403 0
-440 739 1403 0
-440 -739 -1403 0
334 743 -1468 0
334 -743 1468 0
-334 743 1468 0
-334 -743 -1468 0
798 849 1008 0
798 -849 -1008 0
-798 849 -1008 0
-798 -849 1008 0
762 782 1356 0
762 -782 -1356 0
-762 782 -1356 0
-762 -782 1356 0
980 1198 -1307 0
980 -1198 1307 0
-980 1198 1307 0
-980 -1198 -1307 0
1109 1284 1469 0
1109 -1284 -1469 0
-1109 1284 -1469 0
-1109 -1284 1469 0
1121 1460 -1470 0
1121 -1460 1470 0
-1121 1460 1470 0
-1121 -1460 -1470 0
751 901 -1417 0
751 -901 1417 0
-751 901 1417 0
-751 -901 -1417 0
159 859 1138 0
159 -859 -1138 0
-159 859 -1138 0
-159 -859 1138 0
496 1299 1377 0
496 -1299 -1377 0
-496 1299 -1377 0
-496 -1299 1377 0
744 1392 1467 0
744 -1392 -1467 0
-744 1392 -1467 0
-744 -1392 1467 0
412 683 1471 0
412 -683 -1471 0
-412 683 -1471 0
-412 -683 1471 0
423 1454 1472 0
423 -1454 -1472 0
-423 1454 -1472 0
-423 -1454 1472 0
1049 1401 1473 0
1049 -1401 -1473 0
-1049 1401 -1473 0
-1049 -1401 1473 0
307 758 -1461 0
307 -758 1461 0
-307 758 1461 0
-307 -758 -1461 0
199 246 1066 0
199 -246 -1066 0
-199 246 -1066 0
-199 -246 1066 0
340 1223 1364 0
340 -1223 -1364 0
-340 1223 -1364 0
-340 -1223 1364 0
482 1126 -1474 0
482 -1126 1474 0
-482 1126 1474 0
-482 -1126 -1474 0
42 194 1055 0
42 -194 -1055 0
-42 194 -1055 0
-42 -194 1055 0
699 1408 -1468 0
699 -1408 1468 0
-699 1408 1468 0
-699 -1408 -1468 0
432 975 -1400 0
432 -975 1400 0
-432 975 1400 0
-432 -975 -1400 0
21 755 1429 0
21 -755 -1429 0
-21 755 -1429 0
-21 -755 1429 0
148 1469 1475 0
148 -1469 -1475 0
-148 1469 -1475 0
-148 -1469 1475 0
802 1053 1476 0
802 -1053 -1476 0
-802 1053 -1476 0
-802 -1053 1476 0
487 993 1087 0
487 -993 -1087 0
-487 993 -1087 0
-487 -993 1087 0
17 1202 1477 0
17 -1202 -1477 0
-17 1202 -1477 0
-17 -1202 1477 0
1404 1464 -1478 0
1404 -1464 1478 0
-1404 1464 1478 0
-1404 -1464 -1478 0
808 1181 1211 0
808 -1181 -1211 0
-808 1181 -1211 0
-808 -1181 1211 0
1313 1421 -1479 0
1313 -1421 1479 0
-1313 1421 1479 0
-1313 -1421 -1479 0
1047 1249 1347 0
1047 -1249 -1347 0
-1047 1249 -1347 0
-1047 -1249 1347 0
1436 1474 -1480 0
1436 -1474 1480 0
-1436 1474 1480 0
-1436 -1474 -1480 0
119 1004 1357 0
119 -1004 -1357 0
-119 1004 -1357 0
-119 -1004 1357 0
218 1455 1481 0
218 -1455 -1481 0
-218 1455 -1481 0
-218 -1455 1481 0
1383 1442 -1482 0
1383 -1442 1482 0
-1383 1442 1482 0
-1383 -1442 -1482 0
936 1162 1483 0
936 -1162 -1483 0
-936 1162 -1483 0
-936 -1162 1483 0
824 1096 -1128 0
824 -1096 1128 0
-824 1096 1128 0
-824 -1096 -1128 0
828 1322 -1470 0
828 -1322 1470 0
-828 1322 1470 0
-828 -1322 -1470 0
629 1168 1413 0
629 -1168 -1413 0
-629 1168 -1413 0
-629 -1168 1413 0
349 1394 1409 0
349 -1394 -1409 0
-349 1394 -1409 0
-349 -1394 1409 0
144 747 885 0
144 -747 -885 0
-144 747 -885 0
-144 -747 885 0
183 795 -1158 0
183 -795 1158 0
-183 795 1158 0
-183 -795 -1158 0
320 1099 1288 0
320 -1099 -1288 0
-320 1099 -1288 0
-320 -1099 1288 0
110 401 1320 0
110 -401 -1320 0
-110 401 -1320 0
-110 -401 1320 0
1212 1384 1434 0
1212 -1384 -1434 0
-1212 1384 -1434 0
-1212 -1384 1434 0
850 1065 -1453 0
850 -1065 1453 0
-850 1065 1453 0
-850 -1065 -1453 0
1226 1303 1484 0
1226 -1303 -1484 0
-1226 1303 -1484 0
-1226 -1303 1484 0
1229 1289 1402 0
1229 -1289 -1402 0
-1229 1289 -1402 0
-1229 -1289 1402 0
323 1216 1485 0
323 -1216 -1485 0
-323 1216 -1485 0
-323 -1216 1485 0
230 294 1363 0
230 -294 -1363 0
-230 294 -1363 0
-230 -294 1363 0
168 197 -1380 0
168 -197 1380 0
-168 197 1380 0
-168 -197 -1380 0
529 570 -982 0
529 -570 982 0
-529 570 982 0
-529 -570 -982 0
1430 1443 -1486 0
1430 -1443 1486 0
-1430 1443 1486 0
-1430 -1443 -1486 0
863 1188 -1321 0
863 -1188 1321 0
-863 1188 1321 0
-863 -1188 -1321 0
409 1328 -1410 0
409 -1328 1410 0
-409 1328 1410 0
-409 -1328 -1410 0
869 1115 -1296 0
869 -1115 1296 0
-869 1115 1296 0
-869 -1115 -1296 0
73 1038 1323 0
73 -1038 -1323 0
-73 1038 -1323 0
-73 -1038 1323 0
966 1067 -1300 0
966 -1067 1300 0
-966 1067 1300 0
-966 -1067 -1300 0
538 740 -1438 0
538 -740 1438 0
-538 740 1438 0
-538 -740 -1438 0
838 952 1393 0
838 -952 -1393 0
-838 952 -1393 0
-838 -952 1393 0
1102 1224 -1414 0
1102 -1224 1414 0
-1102 1224 1414 0
-1102 -1224 -1414 0
395 499 1361 0
395 -499 -1361 0
-395 499 -1361 0
-395 -499 1361 0
190 479 1088 0
190 -479 -1088 0
-190 479 -1088 0
-190 -479 1088 0
692 1275 -1487 0
692 -1275 1487 0
-692 1275 1487 0
-692 -1275 -1487 0
1001 1426 -1488 0
1001 -1426 1488 0
-1001 1426 1488 0
-1001 -1426 -1488 0
341 449 -1302 0
341 -449 1302 0
-341 449 1302 0
-341 -449 -1302 0
1476 1489 -1490 0
1476 -1489 1490 0
-1476 1489 1490 0
-1476 -1489 -1490 0
225 760 -1451 0
225 -760 1451 0
-225 760 1451 0
-225 -760 -1451 0
1375 1491 1492 0
1375 -1491 -1492 0
-1375 1491 -1492 0
-1375 -1491 1492 0
1326 1472 1489 0
1326 -1472 -1489 0
-1326 1472 -1489 0
-1326 -1472 1489 0
604 1122 1483 0
604 -1122 -1483 0
-604 1122 -1483 0
-604 -1122 1483 0
157 1385 1493 0
157 -1385 -1493 0
-157 1385 -1493 0
-157 -1385 1493 0
1163 1190 1485 0
1163 -1190 -1485 0
-1163 1190 -1485 0
-1163 -1190 1485 0
473 1194 1398 0
473 -1194 -1398 0
-473 1194 -1398 0
-473 -1194 1398 0
237 801 -804 0
237 -801 804 0
-237 801 804 0
-237 -801 -804 0
95 645 1210 0
95 -645 -1210 0
-95 645 -1210 0
-95 -645 1210 0
990 999 -1246 0
990 -999 1246 0
-990 999 1246 0
-990 -999 -1246 0
68 826 1446 0
68 -826 -1446 0
-68 826 -1446 0
-68 -826 1446 0
1355 1449 -1480 0
1355 -1449 1480 0
-1355 1449 1480 0
-1355 -1449 -1480 0
9 1070 -1466 0
9 -1070 1466 0
-9 1070 1466 0
-9 -1070 -1466 0
476 1353 1458 0
476 -1353 -1458 0
-476 1353 -1458 0
-476 -1353 1458 0
564 1456 1463 0
564 -1456 -1463 0
-564 1456 -1463 0
-564 -1456 1463 0
133 169 -1365 0
133 -169 1365 0
-133 169 1365 0
-133 -169 -1365 0
938 1358 -1494 0
938 -1358 1494 0
-938 1358 1494 0
-938 -1358 -1494 0
1084 1431 -1441 0
1084 -1431 1441 0
-1084 1431 1441 0
-1084 -1431 -1441 0
693 967 -1405 0
693 -967 1405 0
-693 967 1405 0
-693 -967 -1405 0
244 677 776 0
244 -677 -776 0
-244 677 -776 0
-244 -677 776 0
943 1273 -1286 0
943 -1273 1286 0
-943 1273 1286 0
-943 -1273 -1286 0
60 1247 -1399 0
60 -1247 1399 0
-60 1247 1399 0
-60 -1247 -1399 0
654 1269 -1495 0
654 -1269 1495 0
-654 1269 1495 0
-654 -1269 -1495 0
1068 1154 1450 0
1068 -1154 -1450 0
-1068 1154 -1450 0
-1068 -1154 1450 0
452 756 -1445 0
452 -756 1445 0
-452 756 1445 0
-452 -756 -1445 0
1447 1475 -1491 0
1447 -1475 1491 0
-1447 1475 1491 0
-1447 -1475 -1491 0
644 671 1496 0
644 -671 -1496 0
-644 671 -1496 0
-644 -671 1496 0
335 1387 -1497 0
335 -1387 1497 0
-335 1387 1497 0
-335 -1387 -1497 0
1072 1330 1465 0
1072 -1330 -1465 0
-1072 1330 -1465 0
-1072 -1330 1465 0
233 835 -1498 0
233 -835 1498 0
-233 835 1498 0
-233 -835 -1498 0
111 623 -1452 0
111 -623 1452 0
-111 623 1452 0
-111 -623 -1452 0
962 964 -1340 0
962 -964 1340 0
-962 964 1340 0
-962 -964 -1340 0
927 1133 -1418 0
927 -1133 1418 0
-927 1133 1418 0
-927 -1133 -1418 0
562 577 1219 0
562 -577 -1219 0
-562 577 -1219 0
-562 -577 1219 0
108 1002 -1111 0
108 -1002 1111 0
-108 1002 1111 0
-108 -1002 -1111 0
446 1369 1494 0
446 -1369 -1494 0
-446 1369 -1494 0
-446 -1369 1494 0
525 731 -1256 0
525 -731 1256 0
-525 731 1256 0
-525 -731 -1256 0
261 1106 1214 0
261 -1106 -1214 0
-261 1106 -1214 0
-261 -1106 1214 0
764 1486 -1488 0
764 -1486 1488 0
-764 1486 1488 0
-764 -1486 -1488 0
1031 1171 -1178 0
1031 -1171 1178 0
-1031 1171 1178 0
-1031 -1171 -1178 0
995 1259 1493 0
995 -1259 -1493 0
-995 1259 -1493 0
-995 -1259 1493 0
888 1274 -1473 0
888 -1274 1473 0
-888 1274 1473 0
-888 -1274 -1473 0
274 722 1217 0
274 -722 -1217 0
-274 722 -1217 0
-274 -722 1217 0
329 1411 -1490 0
329 -1411 1490 0
-329 1411 1490 0
-329 -1411 -1490 0
530 1131 -1499 0
530 -1131 1499 0
-530 1131 1499 0
-530 -1131 -1499 0
200 1310 -1479 0
200 -1310 1479 0
-200 1310 1479 0
-200 -1310 -1479 0
971 1195 1295 0
971 -1195 -1295 0
-971 1195 -1295 0
-971 -1195 1295 0
54 310 1159 0
54 -310 -1159 0
-54 310 -1159 0
-54 -310 1159 0
902 1339 1462 0
902 -1339 -1462 0
-902 1339 -1462 0
-902 -1339 1462 0
590 1009 1440 0
590 -1009 -1440 0
-590 1009 -1440 0
-590 -1009 1440 0
131 1086 -1496 0
131 -1086 1496 0
-131 1086 1496 0
-131 -1086 -1496 0
573 663 -1292 0
573 -663 1292 0
-573 663 1292 0
-573 -663 -1292 0
639 1043 1199 0
639 -1043 -1199 0
-639 1043 -1199 0
-639 -1043 1199 0
96 1351 -1376 0
96 -1351 1376 0
-96 1351 1376 0
-96 -1351 -1376 0
1034 1280 1427 0
1034 -1280 -1427 0
-1034 1280 -1427 0
-1034 -1280 1427 0
172 248 1136 0
172 -248 -1136 0
-172 248 -1136 0
-172 -248 1136 0
514 1003 -1422 0
514 -1003 1422 0
-514 1003 1422 0
-514 -1003 -1422 0
267 497 -1175 0
267 -497 1175 0
-267 497 1175 0
-267 -497 -1175 0
678 1248 -1281 0
678 -1248 1281 0
-678 1248 1281 0
-678 -1248 -1281 0
1333 1345 -1381 0
1333 -1345 1381 0
-1333 1345 1381 0
-1333 -1345 -1381 0
705 796 1315 0
705 -796 -1315 0
-705 796 -1315 0
-705 -796 1315 0
268 1203 1301 0
268 -1203 -1301 0
-268 1203 -1301 0
-268 -1203 1301 0
533 1435 -1444 0
533 -1435 1444 0
-533 1435 1444 0
-533 -1435 -1444 0
718 1423 -1425 0
718 -1423 1425 0
-718 1423 1425 0
-718 -1423 -1425 0
1204 1424 1487 0
1204 -1424 -1487 0
-1204 1424 -1487 0
-1204 -1424 1487 0
732 1370 -1406 0
732 -1370 1406 0
-732 1370 1406 0
-732 -1370 -1406 0
621 1091 -1391 0
621 -1091 1391 0
-621 1091 1391 0
-621 -1091 -1391 0
594 637 1076 0
594 -637 -1076 0
-594 637 -1076 0
-594 -637 1076 0
313 355 1500 0
313 -355 -1500 0
-313 355 -1500 0
-313 -355 1500 0
1262 1492 1500 0
1262 -1492 -1500 0
-1262 1492 -1500 0
-1262 -1492 1500 0
797 1484 -1499 0
797 -1484 1499 0
-797 1484 1499 0
-797 -1484 -1499 0
941 1207 -1478 0
941 -1207 1478 0
-941 1207 1478 0
-941 -1207 -1478 0
238 628 777 0
238 -628 -777 0
-238 628 -777 0
-238 -628 777 0
617 1360 1362 0
617 -1360 -1362 0
-617 1360 -1362 0
-617 -1360 1362 0
484 624 1032 0
484 -624 -1032 0
-484 624 -1032 0
-484 -624 1032 0
606 1228 1337 0
606 -1228 -1337 0
-606 1228 -1337 0
-606 -1228 1337 0
295 867 -1287 0
295 -867 1287 0
-295 867 1287 0
-295 -867 -1287 0
592 1143 1481 0
592 -1143 -1481 0
-592 1143 -1481 0
-592 -1143 1481 0
823 981 1155 0
823 -981 -1155 0
-823 981 -1155 0
-823 -981 1155 0
18 63 1134 0
18 -63 -1134 0
-18 63 -1134 0
-18 -63 1134 0
1230 1265 1324 0
1230 -1265 -1324 0
-1230 1265 -1324 0
-1230 -1265 1324 0
12 226 983 0
12 -226 -983 0
-12 226 -983 0
-12 -226 983 0
546 737 1482 0
546 -737 -1482 0
-546 737 -1482 0
-546 -737 1482 0
730 895 1316 0
730 -895 -1316 0
-730 895 -1316 0
-730 -895 1316 0
251 876 1368 0
251 -876 -1368 0
-251 876 -1368 0
-251 -876 1368 0
860 928 1495 0
860 -928 -1495 0
-860 928 -1495 0
-860 -928 1495 0
145 154 -1208 0
145 -154 1208 0
-145 154 1208 0
-145 -154 -1208 0
984 1388 1471 0
984 -1388 -1471 0
-984 1388 -1471 0
-984 -1388 1471 0
925 1374 1497 0
925 -1374 -1497 0
-925 1374 -1497 0
-925 -1374 1497 0
160 955 -1179 0
160 -955 1179 0
-160 955 1179 0
-160 -955 -1179 0
262 1108 1498 0
262 -1108 -1498 0
-262 1108 -1498 0
-262 -1108 1498 0
87 897 -1437 0
87 -897 1437 0
-87 897 1437 0
-87 -897 -1437 0
946 1019 1238 0
946 -1019 -1238 0
-946 1019 -1238 0
-946 -1019 1238 0
972 1089 -1477 0
972 -1089 1477 0
-972 1089 1477 0
-972 -1089 -1477 0
