c description: Tseitin formula on random 3-regular graph on 800 verices, with odd charge
c generator: CNFgen (0.9.6)
c copyright: (C) 2012-2026 Massimo Lauria <massimo.lauria@uniroma1.it>
c url: https://massimolauria.net/cnfgen
c command line: cnfgen tseitin 800 3
c
p cnf 1200 3200
1 2 -3 0
1 -2 3 0
-1 2 3 0
-1 -2 -3 0
4 5 -6 0
4 -5 6 0
-4 5 6 0
-4 -5 -6 0
7 8 9 0
7 -8 -9 0
-7 8 -9 0
-7 -8 9 0
10 11 12 0
10 -11 -12 0
-10 11 -12 0
-10 -11 12 0
13 14 15 0
13 -14 -15 0
-13 14 -15 0
-13 -14 15 0
16 17 -18 0
16 -17 18 0
-16 17 18 0
-16 -17 -18 0
19 20 -21 0
19 -20 21 0
-19 20 21 0
-19 -20 -21 0
22 23 -24 0
22 -23 24 0
-22 23 24 0
-22 -23 -24 0
25 26 27 0
25 -26 -27 0
-25 26 -27 0
-25 -26 27 0
28 29 30 0
28 -29 -30 0
-28 29 -30 0
-28 -29 30 0
31 32 33 0
31 -32 -33 0
-31 32 -33 0
-31 -32 33 0
34 35 36 0
34 -35 -36 0
-34 35 -36 0
-34 -35 36 0
37 38 -39 0
37 -38 39 0
-37 38 39 0
-37 -38 -39 0
40 41 -42 0
40 -41 42 0
-40 41 42 0
-40 -41 -42 0
43 44 45 0
43 -44 -45 0
-43 44 -45 0
-43 -44 45 0
46 47 48 0
46 -47 -48 0
-46 47 -48 0
-46 -47 48 0
49 50 -51 0
49 -50 51 0
-49 50 51 0
-49 -50 -51 0
52 53 -54 0
52 -53 54 0
-52 53 54 0
-52 -53 -54 0
7 55 56 0
7 -55 -56 0
-7 55 -56 0
-7 -55 56 0
57 58 59 0
57 -58 -59 0
-57 58 -59 0
-57 -58 59 0
60 61 -62 0
60 -61 62 0
-60 61 62 0
-60 -61 -62 0
63 64 -65 0
63 -64 65 0
-63 64 65 0
-63 -64 -65 0
66 67 68 0
66 -67 -68 0
-66 67 -68 0
-66 -67 68 0
69 70 -71 0
69 -70 71 0
-69 70 71 0
-69 -70 -71 0
72 73 -74 0
72 -73 74 0
-72 73 74 0
-72 -73 -74 0
75 76 77 0
75 -76 -77 0
-75 76 -77 0
-75 -76 77 0
78 79 80 0
78 -79 -80 0
-78 79 -80 0
-78 -79 80 0
81 82 83 0
81 -82 -83 0
-81 82 -83 0
-81 -82 83 0
84 85 86 0
84 -85 -86 0
-84 85 -86 0
-84 -85 86 0
49 87 -88 0
49 -87 88 0
-49 87 88 0
-49 -87 -88 0
4 89 -90 0
4 -89 90 0
-4 89 90 0
-4 -89 -90 0
91 92 -93 0
91 -92 93 0
-91 92 93 0
-91 -92 -93 0
94 95 96 0
94 -95 -96 0
-94 95 -96 0
-94 -95 96 0
97 98 -99 0
97 -98 99 0
-97 98 99 0
-97 -98 -99 0
100 101 102 0
100 -101 -102 0
-100 101 -102 0
-100 -101 102 0
103 104 -105 0
103 -104 105 0
-103 104 105 0
-103 -104 -105 0
106 107 -108 0
106 -107 108 0
-106 107 108 0
-106 -107 -108 0
109 110 -111 0
109 -110 111 0
-109 110 111 0
-109 -110 -111 0
112 113 -114 0
112 -113 114 0
-112 113 114 0
-112 -113 -114 0
115 116 117 0
115 -116 -117 0
-115 116 -117 0
-115 -116 117 0
118 119 -120 0
118 -119 120 0
-118 119 120 0
-118 -119 -120 0
121 122 123 0
121 -122 -123 0
-121 122 -123 0
-121 -122 123 0
124 125 -126 0
124 -125 126 0
-124 125 126 0
-124 -125 -126 0
127 128 -129 0
127 -128 129 0
-127 128 129 0
-127 -128 -129 0
130 131 132 0
130 -131 -132 0
-130 131 -132 0
-130 -131 132 0
133 134 -135 0
133 -134 135 0
-133 134 135 0
-133 -134 -135 0
136 137 138 0
136 -137 -138 0
-136 137 -138 0
-136 -137 138 0
139 140 141 0
139 -140 -141 0
-139 140 -141 0
-139 -140 141 0
142 143 144 0
142 -143 -144 0
-142 143 -144 0
-142 -143 144 0
10 145 -146 0
10 -145 146 0
-10 145 146 0
-10 -145 -146 0
81 147 148 0
81 -147 -148 0
-81 147 -148 0
-81 -147 148 0
149 150 151 0
149 -150 -151 0
-149 150 -151 0
-149 -150 151 0
25 152 -153 0
25 -152 153 0
-25 152 153 0
-25 -152 -153 0
154 155 156 0
154 -155 -156 0
-154 155 -156 0
-154 -155 156 0
37 157 158 0
37 -157 -158 0
-37 157 -158 0
-37 -157 158 0
159 160 161 0
159 -160 -161 0
-159 160 -161 0
-159 -160 161 0
162 163 -164 0
162 -163 164 0
-162 163 164 0
-162 -163 -164 0
22 165 -166 0
22 -165 166 0
-22 165 166 0
-22 -165 -166 0
106 152 167 0
106 -152 -167 0
-106 152 -167 0
-106 -152 167 0
168 169 -170 0
168 -169 170 0
-168 169 170 0
-168 -169 -170 0
171 172 173 0
171 -172 -173 0
-171 172 -173 0
-171 -172 173 0
174 175 176 0
174 -175 -176 0
-174 175 -176 0
-174 -175 176 0
177 178 179 0
177 -178 -179 0
-177 178 -179 0
-177 -178 179 0
180 181 -182 0
180 -181 182 0
-180 181 182 0
-180 -181 -182 0
107 183 184 0
107 -183 -184 0
-107 183 -184 0
-107 -183 184 0
185 186 187 0
185 -186 -187 0
-185 186 -187 0
-185 -186 187 0
188 189 -190 0
188 -189 190 0
-188 189 190 0
-188 -189 -190 0
191 192 193 0
191 -192 -193 0
-191 192 -193 0
-191 -192 193 0
194 195 196 0
194 -195 -196 0
-194 195 -196 0
-194 -195 196 0
197 198 -199 0
197 -198 199 0
-197 198 199 0
-197 -198 -199 0
200 201 -202 0
200 -201 202 0
-200 201 202 0
-200 -201 -202 0
203 204 -205 0
203 -204 205 0
-203 204 205 0
-203 -204 -205 0
206 207 -208 0
206 -207 208 0
-206 207 208 0
-206 -207 -208 0
209 210 -211 0
209 -210 211 0
-209 210 211 0
-209 -210 -211 0
212 213 214 0
212 -213 -214 0
-212 213 -214 0
-212 -213 214 0
215 216 217 0
215 -216 -217 0
-215 216 -217 0
-215 -216 217 0
50 218 -219 0
50 -218 219 0
-50 218 219 0
-50 -218 -219 0
220 221 -222 0
220 -221 222 0
-220 221 222 0
-220 -221 -222 0
63 223 -224 0
63 -223 224 0
-63 223 224 0
-63 -223 -224 0
89 162 -225 0
89 -162 225 0
-89 162 225 0
-89 -162 -225 0
19 226 227 0
19 -226 -227 0
-19 226 -227 0
-19 -226 227 0
228 229 230 0
228 -229 -230 0
-228 229 -230 0
-228 -229 230 0
231 232 -233 0
231 -232 233 0
-231 232 233 0
-231 -232 -233 0
234 235 -236 0
234 -235 236 0
-234 235 236 0
-234 -235 -236 0
237 238 239 0
237 -238 -239 0
-237 238 -239 0
-237 -238 239 0
240 241 242 0
240 -241 -242 0
-240 241 -242 0
-240 -241 242 0
13 243 -244 0
13 -243 244 0
-13 243 244 0
-13 -243 -244 0
237 245 246 0
237 -245 -246 0
-237 245 -246 0
-237 -245 246 0
247 248 -249 0
247 -248 249 0
-247 248 249 0
-247 -248 -249 0
250 251 252 0
250 -251 -252 0
-250 251 -252 0
-250 -251 252 0
253 254 255 0
253 -254 -255 0
-253 254 -255 0
-253 -254 255 0
168 256 257 0
168 -256 -257 0
-168 256 -257 0
-168 -256 257 0
75 258 259 0
75 -258 -259 0
-75 258 -259 0
-75 -258 259 0
260 261 -262 0
260 -261 262 0
-260 261 262 0
-260 -261 -262 0
206 263 264 0
206 -263 -264 0
-206 263 -264 0
-206 -263 264 0
265 266 267 0
265 -266 -267 0
-265 266 -267 0
-265 -266 267 0
268 269 270 0
268 -269 -270 0
-268 269 -270 0
-268 -269 270 0
66 271 272 0
66 -271 -272 0
-66 271 -272 0
-66 -271 272 0
124 273 -274 0
124 -273 274 0
-124 273 274 0
-124 -273 -274 0
275 276 -277 0
275 -276 277 0
-275 276 277 0
-275 -276 -277 0
278 279 280 0
278 -279 -280 0
-278 279 -280 0
-278 -279 280 0
281 282 283 0
281 -282 -283 0
-281 282 -283 0
-281 -282 283 0
130 284 -285 0
130 -284 285 0
-130 284 285 0
-130 -284 -285 0
203 286 -287 0
203 -286 287 0
-203 286 287 0
-203 -286 -287 0
288 289 290 0
288 -289 -290 0
-288 289 -290 0
-288 -289 290 0
291 292 -293 0
291 -292 293 0
-291 292 293 0
-291 -292 -293 0
294 295 296 0
294 -295 -296 0
-294 295 -296 0
-294 -295 296 0
297 298 299 0
297 -298 -299 0
-297 298 -299 0
-297 -298 299 0
300 301 302 0
300 -301 -302 0
-300 301 -302 0
-300 -301 302 0
303 304 305 0
303 -304 -305 0
-303 304 -305 0
-303 -304 305 0
306 307 -308 0
306 -307 308 0
-306 307 308 0
-306 -307 -308 0
309 310 311 0
309 -310 -311 0
-309 310 -311 0
-309 -310 311 0
312 313 314 0
312 -313 -314 0
-312 313 -314 0
-312 -313 314 0
315 316 -317 0
315 -316 317 0
-315 316 317 0
-315 -316 -317 0
46 318 319 0
46 -318 -319 0
-46 318 -319 0
-46 -318 319 0
82 320 -321 0
82 -320 321 0
-82 320 321 0
-82 -320 -321 0
322 323 324 0
322 -323 -324 0
-322 323 -324 0
-322 -323 324 0
57 84 325 0
57 -84 -325 0
-57 84 -325 0
-57 -84 325 0
131 326 -327 0
131 -326 327 0
-131 326 327 0
-131 -326 -327 0
78 328 -329 0
78 -328 329 0
-78 328 329 0
-78 -328 -329 0
330 331 332 0
330 -331 -332 0
-330 331 -332 0
-330 -331 332 0
326 333 -334 0
326 -333 334 0
-326 333 334 0
-326 -333 -334 0
335 336 337 0
335 -336 -337 0
-335 336 -337 0
-335 -336 337 0
338 339 -340 0
338 -339 340 0
-338 339 340 0
-338 -339 -340 0
341 342 -343 0
341 -342 343 0
-341 342 343 0
-341 -342 -343 0
344 345 346 0
344 -345 -346 0
-344 345 -346 0
-344 -345 346 0
347 348 349 0
347 -348 -349 0
-347 348 -349 0
-347 -348 349 0
350 351 352 0
350 -351 -352 0
-350 351 -352 0
-350 -351 352 0
353 354 -355 0
353 -354 355 0
-353 354 355 0
-353 -354 -355 0
157 356 357 0
157 -356 -357 0
-157 356 -357 0
-157 -356 357 0
358 359 -360 0
358 -359 360 0
-358 359 360 0
-358 -359 -360 0
361 362 -363 0
361 -362 363 0
-361 362 363 0
-361 -362 -363 0
364 365 366 0
364 -365 -366 0
-364 365 -366 0
-364 -365 366 0
34 367 368 0
34 -367 -368 0
-34 367 -368 0
-34 -367 368 0
100 369 -370 0
100 -369 370 0
-100 369 370 0
-100 -369 -370 0
347 371 372 0
347 -371 -372 0
-347 371 -372 0
-347 -371 372 0
373 374 375 0
373 -374 -375 0
-373 374 -375 0
-373 -374 375 0
376 377 -378 0
376 -377 378 0
-376 377 378 0
-376 -377 -378 0
379 380 -381 0
379 -380 381 0
-379 380 381 0
-379 -380 -381 0
271 382 -383 0
271 -382 383 0
-271 382 383 0
-271 -382 -383 0
384 385 -386 0
384 -385 386 0
-384 385 386 0
-384 -385 -386 0
387 388 -389 0
387 -388 389 0
-387 388 389 0
-387 -388 -389 0
358 390 391 0
358 -390 -391 0
-358 390 -391 0
-358 -390 391 0
392 393 -394 0
392 -393 394 0
-392 393 394 0
-392 -393 -394 0
395 396 397 0
395 -396 -397 0
-395 396 -397 0
-395 -396 397 0
398 399 -400 0
398 -399 400 0
-398 399 400 0
-398 -399 -400 0
401 402 -403 0
401 -402 403 0
-401 402 403 0
-401 -402 -403 0
404 405 -406 0
404 -405 406 0
-404 405 406 0
-404 -405 -406 0
109 407 408 0
109 -407 -408 0
-109 407 -408 0
-109 -407 408 0
234 409 -410 0
234 -409 410 0
-234 409 410 0
-234 -409 -410 0
411 412 -413 0
411 -412 413 0
-411 412 413 0
-411 -412 -413 0
312 414 -415 0
312 -414 415 0
-312 414 415 0
-312 -414 -415 0
43 416 417 0
43 -416 -417 0
-43 416 -417 0
-43 -416 417 0
418 419 -420 0
418 -419 420 0
-418 419 420 0
-418 -419 -420 0
1 421 -422 0
1 -421 422 0
-1 421 422 0
-1 -421 -422 0
2 423 -424 0
2 -423 424 0
-2 423 424 0
-2 -423 -424 0
384 425 426 0
384 -425 -426 0
-384 425 -426 0
-384 -425 426 0
427 428 429 0
427 -428 -429 0
-427 428 -429 0
-427 -428 429 0
430 431 432 0
430 -431 -432 0
-430 431 -432 0
-430 -431 432 0
401 433 434 0
401 -433 -434 0
-401 433 -434 0
-401 -433 434 0
435 436 -437 0
435 -436 437 0
-435 436 437 0
-435 -436 -437 0
438 439 440 0
438 -439 -440 0
-438 439 -440 0
-438 -439 440 0
333 441 -442 0
333 -441 442 0
-333 441 442 0
-333 -441 -442 0
91 443 444 0
91 -443 -444 0
-91 443 -444 0
-91 -443 444 0
297 445 -446 0
297 -445 446 0
-297 445 446 0
-297 -445 -446 0
376 447 448 0
376 -447 -448 0
-376 447 -448 0
-376 -447 448 0
398 449 450 0
398 -449 -450 0
-398 449 -450 0
-398 -449 450 0
399 451 452 0
399 -451 -452 0
-399 451 -452 0
-399 -451 452 0
453 454 455 0
453 -454 -455 0
-453 454 -455 0
-453 -454 455 0
456 457 -458 0
456 -457 458 0
-456 457 458 0
-456 -457 -458 0
300 459 -460 0
300 -459 460 0
-300 459 460 0
-300 -459 -460 0
240 461 462 0
240 -461 -462 0
-240 461 -462 0
-240 -461 462 0
97 142 463 0
97 -142 -463 0
-97 142 -463 0
-97 -142 463 0
464 465 -466 0
464 -465 466 0
-464 465 466 0
-464 -465 -466 0
31 467 -468 0
31 -467 468 0
-31 467 468 0
-31 -467 -468 0
136 341 469 0
136 -341 -469 0
-136 341 -469 0
-136 -341 469 0
470 471 472 0
470 -471 -472 0
-470 471 -472 0
-470 -471 472 0
69 281 -473 0
69 -281 473 0
-69 281 473 0
-69 -281 -473 0
464 474 -475 0
464 -474 475 0
-464 474 475 0
-464 -474 -475 0
207 476 477 0
207 -476 -477 0
-207 476 -477 0
-207 -476 477 0
338 411 478 0
338 -411 -478 0
-338 411 -478 0
-338 -411 478 0
479 480 481 0
479 -480 -481 0
-479 480 -481 0
-479 -480 481 0
482 483 -484 0
482 -483 484 0
-482 483 484 0
-482 -483 -484 0
485 486 -487 0
485 -486 487 0
-485 486 487 0
-485 -486 -487 0
185 488 489 0
185 -488 -489 0
-185 488 -489 0
-185 -488 489 0
490 491 492 0
490 -491 -492 0
-490 491 -492 0
-490 -491 492 0
423 493 -494 0
423 -493 494 0
-423 493 494 0
-423 -493 -494 0
495 496 -497 0
495 -496 497 0
-495 496 497 0
-495 -496 -497 0
409 498 -499 0
409 -498 499 0
-409 498 499 0
-409 -498 -499 0
115 500 501 0
115 -500 -501 0
-115 500 -501 0
-115 -500 501 0
180 502 503 0
180 -502 -503 0
-180 502 -503 0
-180 -502 503 0
225 350 -504 0
225 -350 504 0
-225 350 504 0
-225 -350 -504 0
505 506 507 0
505 -506 -507 0
-505 506 -507 0
-505 -506 507 0
508 509 -510 0
508 -509 510 0
-508 509 510 0
-508 -509 -510 0
335 367 511 0
335 -367 -511 0
-335 367 -511 0
-335 -367 511 0
402 512 -513 0
402 -512 513 0
-402 512 513 0
-402 -512 -513 0
212 514 -515 0
212 -514 515 0
-212 514 515 0
-212 -514 -515 0
44 516 517 0
44 -516 -517 0
-44 516 -517 0
-44 -516 517 0
518 519 -520 0
518 -519 520 0
-518 519 520 0
-518 -519 -520 0
309 521 -522 0
309 -521 522 0
-309 521 522 0
-309 -521 -522 0
72 523 -524 0
72 -523 524 0
-72 523 524 0
-72 -523 -524 0
101 525 -526 0
101 -525 526 0
-101 525 526 0
-101 -525 -526 0
527 528 -529 0
527 -528 529 0
-527 528 529 0
-527 -528 -529 0
306 530 531 0
306 -530 -531 0
-306 530 -531 0
-306 -530 531 0
532 533 -534 0
532 -533 534 0
-532 533 534 0
-532 -533 -534 0
535 536 -537 0
535 -536 537 0
-535 536 537 0
-535 -536 -537 0
322 538 539 0
322 -538 -539 0
-322 538 -539 0
-322 -538 539 0
540 541 -542 0
540 -541 542 0
-540 541 542 0
-540 -541 -542 0
70 532 543 0
70 -532 -543 0
-70 532 -543 0
-70 -532 543 0
544 545 -546 0
544 -545 546 0
-544 545 546 0
-544 -545 -546 0
547 548 549 0
547 -548 -549 0
-547 548 -549 0
-547 -548 549 0
550 551 552 0
550 -551 -552 0
-550 551 -552 0
-550 -551 552 0
553 554 -555 0
553 -554 555 0
-553 554 555 0
-553 -554 -555 0
556 557 558 0
556 -557 -558 0
-556 557 -558 0
-556 -557 558 0
559 560 -561 0
559 -560 561 0
-559 560 561 0
-559 -560 -561 0
562 563 564 0
562 -563 -564 0
-562 563 -564 0
-562 -563 564 0
11 565 -566 0
11 -565 566 0
-11 565 566 0
-11 -565 -566 0
567 568 -569 0
567 -568 569 0
-567 568 569 0
-567 -568 -569 0
204 540 -570 0
204 -540 570 0
-204 540 570 0
-204 -540 -570 0
275 320 -571 0
275 -320 571 0
-275 320 571 0
-275 -320 -571 0
14 76 572 0
14 -76 -572 0
-14 76 -572 0
-14 -76 572 0
38 573 574 0
38 -573 -574 0
-38 573 -574 0
-38 -573 574 0
102 575 576 0
102 -575 -576 0
-102 575 -576 0
-102 -575 576 0
577 578 579 0
577 -578 -579 0
-577 578 -579 0
-577 -578 579 0
218 580 581 0
218 -580 -581 0
-218 580 -581 0
-218 -580 581 0
582 583 584 0
582 -583 -584 0
-582 583 -584 0
-582 -583 584 0
247 585 -586 0
247 -585 586 0
-247 585 586 0
-247 -585 -586 0
425 587 -588 0
425 -587 588 0
-425 587 588 0
-425 -587 -588 0
87 447 -589 0
87 -447 589 0
-87 447 589 0
-87 -447 -589 0
260 590 591 0
260 -590 -591 0
-260 590 -591 0
-260 -590 591 0
261 592 -593 0
261 -592 593 0
-261 592 593 0
-261 -592 -593 0
392 594 -595 0
392 -594 595 0
-392 594 595 0
-392 -594 -595 0
596 597 -598 0
596 -597 598 0
-596 597 598 0
-596 -597 -598 0
393 599 -600 0
393 -599 600 0
-393 599 600 0
-393 -599 -600 0
449 601 -602 0
449 -601 602 0
-449 601 602 0
-449 -601 -602 0
603 604 605 0
603 -604 -605 0
-603 604 -605 0
-603 -604 605 0
606 607 -608 0
606 -607 608 0
-606 607 608 0
-606 -607 -608 0
194 609 -610 0
194 -609 610 0
-194 609 610 0
-194 -609 -610 0
23 611 612 0
23 -611 -612 0
-23 611 -612 0
-23 -611 612 0
284 613 614 0
284 -613 -614 0
-284 613 -614 0
-284 -613 614 0
615 616 -617 0
615 -616 617 0
-615 616 617 0
-615 -616 -617 0
456 559 -618 0
456 -559 618 0
-456 559 618 0
-456 -559 -618 0
149 313 619 0
149 -313 -619 0
-149 313 -619 0
-149 -313 619 0
3 620 621 0
3 -620 -621 0
-3 620 -621 0
-3 -620 621 0
622 623 -624 0
622 -623 624 0
-622 623 624 0
-622 -623 -624 0
213 625 626 0
213 -625 -626 0
-213 625 -626 0
-213 -625 626 0
321 373 627 0
321 -373 -627 0
-321 373 -627 0
-321 -373 627 0
24 628 629 0
24 -628 -629 0
-24 628 -629 0
-24 -628 629 0
150 575 -630 0
150 -575 630 0
-150 575 630 0
-150 -575 -630 0
40 631 -632 0
40 -631 632 0
-40 631 632 0
-40 -631 -632 0
594 633 634 0
594 -633 -634 0
-594 633 -634 0
-594 -633 634 0
635 636 -637 0
635 -636 637 0
-635 636 637 0
-635 -636 -637 0
339 638 -639 0
339 -638 639 0
-339 638 639 0
-339 -638 -639 0
379 485 -640 0
379 -485 640 0
-379 485 640 0
-379 -485 -640 0
265 641 -642 0
265 -641 642 0
-265 641 642 0
-265 -641 -642 0
643 644 645 0
643 -644 -645 0
-643 644 -645 0
-643 -644 645 0
268 445 -646 0
268 -445 646 0
-268 445 646 0
-268 -445 -646 0
272 619 -647 0
272 -619 647 0
-272 619 647 0
-272 -619 -647 0
286 291 648 0
286 -291 -648 0
-286 291 -648 0
-286 -291 648 0
573 649 -650 0
573 -649 650 0
-573 649 650 0
-573 -649 -650 0
651 652 -653 0
651 -652 653 0
-651 652 653 0
-651 -652 -653 0
359 654 -655 0
359 -654 655 0
-359 654 655 0
-359 -654 -655 0
371 394 656 0
371 -394 -656 0
-371 394 -656 0
-371 -394 656 0
183 657 658 0
183 -657 -658 0
-183 657 -658 0
-183 -657 658 0
39 659 -660 0
39 -659 660 0
-39 659 660 0
-39 -659 -660 0
8 661 -662 0
8 -661 662 0
-8 661 662 0
-8 -661 -662 0
28 191 663 0
28 -191 -663 0
-28 191 -663 0
-28 -191 663 0
200 664 665 0
200 -664 -665 0
-200 664 -665 0
-200 -664 665 0
266 666 667 0
266 -666 -667 0
-266 666 -667 0
-266 -666 667 0
52 668 669 0
52 -668 -669 0
-52 668 -669 0
-52 -668 669 0
159 369 670 0
159 -369 -670 0
-159 369 -670 0
-159 -369 670 0
171 641 -651 0
171 -641 651 0
-171 641 651 0
-171 -641 -651 0
490 671 -672 0
490 -671 672 0
-490 671 672 0
-490 -671 -672 0
336 673 -674 0
336 -673 674 0
-336 673 674 0
-336 -673 -674 0
450 675 676 0
450 -675 -676 0
-450 675 -676 0
-450 -675 676 0
421 677 -678 0
421 -677 678 0
-421 677 678 0
-421 -677 -678 0
679 680 681 0
679 -680 -681 0
-679 680 -681 0
-679 -680 681 0
682 683 -684 0
682 -683 684 0
-682 683 684 0
-682 -683 -684 0
380 556 -685 0
380 -556 685 0
-380 556 685 0
-380 -556 -685 0
686 687 -688 0
686 -687 688 0
-686 687 688 0
-686 -687 -688 0
689 690 691 0
689 -690 -691 0
-689 690 -691 0
-689 -690 691 0
505 692 -693 0
505 -692 693 0
-505 692 693 0
-505 -692 -693 0
603 694 695 0
603 -694 -695 0
-603 694 -695 0
-603 -694 695 0
696 697 698 0
696 -697 -698 0
-696 697 -698 0
-696 -697 698 0
443 592 699 0
443 -592 -699 0
-443 592 -699 0
-443 -592 699 0
41 700 701 0
41 -700 -701 0
-41 700 -701 0
-41 -700 701 0
702 703 704 0
702 -703 -704 0
-702 703 -704 0
-702 -703 704 0
298 705 -706 0
298 -705 706 0
-298 705 706 0
-298 -705 -706 0
418 435 707 0
418 -435 -707 0
-418 435 -707 0
-418 -435 707 0
708 709 710 0
708 -709 -710 0
-708 709 -710 0
-708 -709 710 0
711 712 -713 0
711 -712 713 0
-711 712 713 0
-711 -712 -713 0
547 714 -715 0
547 -714 715 0
-547 714 715 0
-547 -714 -715 0
716 717 718 0
716 -717 -718 0
-716 717 -718 0
-716 -717 718 0
453 719 720 0
453 -719 -720 0
-453 719 -720 0
-453 -719 720 0
60 721 -722 0
60 -721 722 0
-60 721 722 0
-60 -721 -722 0
262 723 -724 0
262 -723 724 0
-262 723 724 0
-262 -723 -724 0
133 535 725 0
133 -535 -725 0
-133 535 -725 0
-133 -535 725 0
521 553 726 0
521 -553 -726 0
-521 553 -726 0
-521 -553 726 0
727 728 729 0
727 -728 -729 0
-727 728 -729 0
-727 -728 729 0
730 731 732 0
730 -731 -732 0
-730 731 -732 0
-730 -731 732 0
214 733 734 0
214 -733 -734 0
-214 733 -734 0
-214 -733 734 0
169 735 736 0
169 -735 -736 0
-169 735 -736 0
-169 -735 736 0
301 577 737 0
301 -577 -737 0
-301 577 -737 0
-301 -577 737 0
267 738 739 0
267 -738 -739 0
-267 738 -739 0
-267 -738 739 0
32 554 -562 0
32 -554 562 0
-32 554 562 0
-32 -554 -562 0
64 292 -473 0
64 -292 473 0
-64 292 473 0
-64 -292 -473 0
740 741 742 0
740 -741 -742 0
-740 741 -742 0
-740 -741 742 0
248 412 -743 0
248 -412 743 0
-248 412 743 0
-248 -412 -743 0
465 661 -730 0
465 -661 730 0
-465 661 730 0
-465 -661 -730 0
390 640 744 0
390 -640 -744 0
-390 640 -744 0
-390 -640 744 0
410 618 745 0
410 -618 -745 0
-410 618 -745 0
-410 -618 745 0
746 747 748 0
746 -747 -748 0
-746 747 -748 0
-746 -747 748 0
557 733 749 0
557 -733 -749 0
-557 733 -749 0
-557 -733 749 0
92 518 -750 0
92 -518 750 0
-92 518 750 0
-92 -518 -750 0
29 238 -751 0
29 -238 751 0
-29 238 751 0
-29 -238 -751 0
356 752 -753 0
356 -752 753 0
-356 752 753 0
-356 -752 -753 0
118 186 754 0
118 -186 -754 0
-118 186 -754 0
-118 -186 754 0
58 755 756 0
58 -755 -756 0
-58 755 -756 0
-58 -755 756 0
382 757 -758 0
382 -757 758 0
-382 757 758 0
-382 -757 -758 0
256 759 760 0
256 -759 -760 0
-256 759 -760 0
-256 -759 760 0
391 761 762 0
391 -761 -762 0
-391 761 -762 0
-391 -761 762 0
404 763 764 0
404 -763 -764 0
-404 763 -764 0
-404 -763 764 0
467 765 -766 0
467 -765 766 0
-467 765 766 0
-467 -765 -766 0
395 767 -768 0
395 -767 768 0
-395 767 768 0
-395 -767 -768 0
723 769 770 0
723 -769 -770 0
-723 769 -770 0
-723 -769 770 0
85 506 -771 0
85 -506 771 0
-85 506 771 0
-85 -506 -771 0
79 694 772 0
79 -694 -772 0
-79 694 -772 0
-79 -694 772 0
209 550 -773 0
209 -550 773 0
-209 550 773 0
-209 -550 -773 0
165 500 761 0
165 -500 -761 0
-165 500 -761 0
-165 -500 761 0
711 774 -775 0
711 -774 775 0
-711 774 775 0
-711 -774 -775 0
587 776 777 0
587 -776 -777 0
-587 776 -777 0
-587 -776 777 0
282 571 -778 0
282 -571 778 0
-282 571 778 0
-282 -571 -778 0
779 780 -781 0
779 -780 781 0
-779 780 781 0
-779 -780 -781 0
12 482 782 0
12 -482 -782 0
-12 482 -782 0
-12 -482 782 0
328 783 784 0
328 -783 -784 0
-328 783 -784 0
-328 -783 784 0
604 785 786 0
604 -785 -786 0
-604 785 -786 0
-604 -785 786 0
405 787 -788 0
405 -787 788 0
-405 787 788 0
-405 -787 -788 0
679 750 -789 0
679 -750 789 0
-679 750 789 0
-679 -750 -789 0
16 790 -791 0
16 -790 791 0
-16 790 791 0
-16 -790 -791 0
762 792 -793 0
762 -792 793 0
-762 792 793 0
-762 -792 -793 0
589 794 795 0
589 -794 -795 0
-589 794 -795 0
-589 -794 795 0
177 588 -796 0
177 -588 796 0
-177 588 796 0
-177 -588 -796 0
745 797 798 0
745 -797 -798 0
-745 797 -798 0
-745 -797 798 0
419 799 800 0
419 -799 -800 0
-419 799 -800 0
-419 -799 800 0
801 802 803 0
801 -802 -803 0
-801 802 -803 0
-801 -802 803 0
582 804 805 0
582 -804 -805 0
-582 804 -805 0
-582 -804 805 0
806 807 808 0
806 -807 -808 0
-806 807 -808 0
-806 -807 808 0
580 738 -809 0
580 -738 809 0
-580 738 809 0
-580 -738 -809 0
17 810 811 0
17 -810 -811 0
-17 810 -811 0
-17 -810 811 0
231 403 812 0
231 -403 -812 0
-231 403 -812 0
-231 -403 812 0
813 814 815 0
813 -814 -815 0
-813 814 -815 0
-813 -814 815 0
816 817 818 0
816 -817 -818 0
-816 817 -818 0
-816 -817 818 0
145 819 -820 0
145 -819 820 0
-145 819 820 0
-145 -819 -820 0
821 822 -823 0
821 -822 823 0
-821 822 823 0
-821 -822 -823 0
824 825 -826 0
824 -825 826 0
-824 825 826 0
-824 -825 -826 0
525 696 827 0
525 -696 -827 0
-525 696 -827 0
-525 -696 827 0
127 454 828 0
127 -454 -828 0
-127 454 -828 0
-127 -454 828 0
294 615 829 0
294 -615 -829 0
-294 615 -829 0
-294 -615 829 0
430 830 831 0
430 -830 -831 0
-430 830 -831 0
-430 -830 831 0
192 622 648 0
192 -622 -648 0
-192 622 -648 0
-192 -622 648 0
383 832 833 0
383 -832 -833 0
-383 832 -833 0
-383 -832 833 0
834 835 836 0
834 -835 -836 0
-834 835 -836 0
-834 -835 836 0
53 716 -837 0
53 -716 837 0
-53 716 837 0
-53 -716 -837 0
838 839 -840 0
838 -839 840 0
-838 839 840 0
-838 -839 -840 0
201 841 -842 0
201 -841 842 0
-201 841 842 0
-201 -841 -842 0
843 844 -845 0
843 -844 845 0
-843 844 845 0
-843 -844 -845 0
536 846 847 0
536 -846 -847 0
-536 846 -847 0
-536 -846 847 0
77 848 -849 0
77 -848 849 0
-77 848 849 0
-77 -848 -849 0
315 850 -851 0
315 -850 851 0
-315 850 851 0
-315 -850 -851 0
416 852 -853 0
416 -852 853 0
-416 852 853 0
-416 -852 -853 0
854 855 856 0
854 -855 -856 0
-854 855 -856 0
-854 -855 856 0
638 857 -858 0
638 -857 858 0
-638 857 858 0
-638 -857 -858 0
147 495 -859 0
147 -495 859 0
-147 495 859 0
-147 -495 -859 0
427 816 860 0
427 -816 -860 0
-427 816 -860 0
-427 -816 860 0
488 740 -861 0
488 -740 861 0
-488 740 861 0
-488 -740 -861 0
755 862 863 0
755 -862 -863 0
-755 862 -863 0
-755 -862 863 0
431 864 865 0
431 -864 -865 0
-431 864 -865 0
-431 -864 865 0
866 867 868 0
866 -867 -868 0
-866 867 -868 0
-866 -867 868 0
463 668 -869 0
463 -668 869 0
-463 668 869 0
-463 -668 -869 0
51 288 699 0
51 -288 -699 0
-51 288 -699 0
-51 -288 699 0
293 870 871 0
293 -870 -871 0
-293 870 -871 0
-293 -870 871 0
47 783 872 0
47 -783 -872 0
-47 783 -872 0
-47 -783 872 0
121 613 873 0
121 -613 -873 0
-121 613 -873 0
-121 -613 873 0
228 486 -874 0
228 -486 874 0
-228 486 874 0
-228 -486 -874 0
875 876 -877 0
875 -876 877 0
-875 876 877 0
-875 -876 -877 0
516 551 878 0
516 -551 -878 0
-516 551 -878 0
-516 -551 878 0
457 813 -879 0
457 -813 879 0
-457 813 879 0
-457 -813 -879 0
438 880 881 0
438 -880 -881 0
-438 880 -881 0
-438 -880 881 0
318 567 769 0
318 -567 -769 0
-318 567 -769 0
-318 -567 769 0
759 882 -883 0
759 -882 883 0
-759 882 883 0
-759 -882 -883 0
148 861 -884 0
148 -861 884 0
-148 861 884 0
-148 -861 -884 0
26 885 -886 0
26 -885 886 0
-26 885 886 0
-26 -885 -886 0
172 887 888 0
172 -887 -888 0
-172 887 -888 0
-172 -887 888 0
889 890 891 0
889 -890 -891 0
-889 890 -891 0
-889 -890 891 0
459 504 541 0
459 -504 -541 0
-459 504 -541 0
-459 -504 541 0
776 892 -893 0
776 -892 893 0
-776 892 893 0
-776 -892 -893 0
461 894 895 0
461 -894 -895 0
-461 894 -895 0
-461 -894 895 0
151 479 -896 0
151 -479 896 0
-151 479 896 0
-151 -479 -896 0
593 620 -897 0
593 -620 897 0
-593 620 897 0
-593 -620 -897 0
828 898 899 0
828 -898 -899 0
-828 898 -899 0
-828 -898 899 0
35 900 901 0
35 -900 -901 0
-35 900 -901 0
-35 -900 901 0
772 902 -903 0
772 -902 903 0
-772 902 903 0
-772 -902 -903 0
595 904 -905 0
595 -904 905 0
-595 904 905 0
-595 -904 -905 0
657 906 907 0
657 -906 -907 0
-657 906 -907 0
-657 -906 907 0
763 843 908 0
763 -843 -908 0
-763 843 -908 0
-763 -843 908 0
628 909 -910 0
628 -909 910 0
-628 909 910 0
-628 -909 -910 0
278 623 911 0
278 -623 -911 0
-278 623 -911 0
-278 -623 911 0
174 330 870 0
174 -330 -870 0
-174 330 -870 0
-174 -330 870 0
337 787 -912 0
337 -787 912 0
-337 787 912 0
-337 -787 -912 0
702 834 -913 0
702 -834 913 0
-702 834 913 0
-702 -834 -913 0
664 914 -915 0
664 -914 915 0
-664 914 915 0
-664 -914 -915 0
128 631 -916 0
128 -631 916 0
-128 631 916 0
-128 -631 -916 0
258 413 -817 0
258 -413 817 0
-258 413 817 0
-258 -413 -817 0
110 917 918 0
110 -917 -918 0
-110 917 -918 0
-110 -917 918 0
295 323 741 0
295 -323 -741 0
-295 323 -741 0
-295 -323 741 0
523 919 -920 0
523 -919 920 0
-523 919 920 0
-523 -919 -920 0
432 866 -921 0
432 -866 921 0
-432 866 921 0
-432 -866 -921 0
67 922 -923 0
67 -922 923 0
-67 922 923 0
-67 -922 -923 0
624 846 924 0
624 -846 -924 0
-624 846 -924 0
-624 -846 924 0
15 835 925 0
15 -835 -925 0
-15 835 -925 0
-15 -835 925 0
926 927 928 0
926 -927 -928 0
-926 927 -928 0
-926 -927 928 0
129 929 930 0
129 -929 -930 0
-129 929 -930 0
-129 -929 930 0
205 444 929 0
205 -444 -929 0
-205 444 -929 0
-205 -444 929 0
746 931 -932 0
746 -931 932 0
-746 931 932 0
-746 -931 -932 0
544 933 934 0
544 -933 -934 0
-544 933 -934 0
-544 -933 934 0
436 935 -936 0
436 -935 936 0
-436 935 936 0
-436 -935 -936 0
611 649 906 0
611 -649 -906 0
-611 649 -906 0
-611 -649 906 0
708 892 -937 0
708 -892 937 0
-708 892 937 0
-708 -892 -937 0
364 387 938 0
364 -387 -938 0
-364 387 -938 0
-364 -387 938 0
153 524 -939 0
153 -524 939 0
-153 524 939 0
-153 -524 -939 0
507 940 -941 0
507 -940 941 0
-507 940 941 0
-507 -940 -941 0
132 942 -943 0
132 -942 943 0
-132 942 943 0
-132 -942 -943 0
220 735 -797 0
220 -735 797 0
-220 735 797 0
-220 -735 -797 0
944 945 946 0
944 -945 -946 0
-944 945 -946 0
-944 -945 946 0
806 947 948 0
806 -947 -948 0
-806 947 -948 0
-806 -947 948 0
949 950 -951 0
949 -950 951 0
-949 950 951 0
-949 -950 -951 0
302 767 952 0
302 -767 -952 0
-302 767 -952 0
-302 -767 952 0
756 897 -953 0
756 -897 953 0
-756 897 953 0
-756 -897 -953 0
666 909 -954 0
666 -909 954 0
-666 909 954 0
-666 -909 -954 0
178 714 -955 0
178 -714 955 0
-178 714 955 0
-178 -714 -955 0
570 774 867 0
570 -774 -867 0
-570 774 -867 0
-570 -774 867 0
629 844 882 0
629 -844 -882 0
-629 844 -882 0
-629 -844 882 0
285 896 -956 0
285 -896 956 0
-285 896 956 0
-285 -896 -956 0
751 957 -958 0
751 -957 958 0
-751 957 958 0
-751 -957 -958 0
508 824 959 0
508 -824 -959 0
-508 824 -959 0
-508 -824 959 0
960 961 962 0
960 -961 -962 0
-960 961 -962 0
-960 -961 962 0
810 935 963 0
810 -935 -963 0
-810 935 -963 0
-810 -935 963 0
658 964 965 0
658 -964 -965 0
-658 964 -965 0
-658 -964 965 0
353 625 -933 0
353 -625 933 0
-353 625 933 0
-353 -625 -933 0
73 474 -590 0
73 -474 590 0
-73 474 590 0
-73 -474 -590 0
208 966 -967 0
208 -966 967 0
-208 966 967 0
-208 -966 -967 0
862 968 969 0
862 -968 -969 0
-862 968 -969 0
-862 -968 969 0
125 340 -900 0
125 -340 900 0
-125 340 900 0
-125 -340 -900 0
747 970 971 0
747 -970 -971 0
-747 970 -971 0
-747 -970 971 0
576 836 859 0
576 -836 -859 0
-576 836 -859 0
-576 -836 859 0
972 973 -974 0
972 -973 974 0
-972 973 974 0
-972 -973 -974 0
727 975 -976 0
727 -975 976 0
-727 975 976 0
-727 -975 -976 0
977 978 979 0
977 -978 -979 0
-977 978 -979 0
-977 -978 979 0
65 98 -980 0
65 -98 980 0
-65 98 980 0
-65 -98 -980 0
406 964 981 0
406 -964 -981 0
-406 964 -981 0
-406 -964 981 0
428 982 -983 0
428 -982 983 0
-428 982 983 0
-428 -982 -983 0
167 984 985 0
167 -984 -985 0
-167 984 -985 0
-167 -984 985 0
137 986 987 0
137 -986 -987 0
-137 986 -987 0
-137 -986 987 0
188 902 988 0
188 -902 -988 0
-188 902 -988 0
-188 -902 988 0
533 989 -990 0
533 -989 990 0
-533 989 990 0
-533 -989 -990 0
953 991 992 0
953 -991 -992 0
-953 991 -992 0
-953 -991 992 0
874 993 994 0
874 -993 -994 0
-874 993 -994 0
-874 -993 994 0
307 451 -868 0
307 -451 868 0
-307 451 868 0
-307 -451 -868 0
241 374 -995 0
241 -374 995 0
-241 374 995 0
-241 -374 -995 0
71 980 996 0
71 -980 -996 0
-71 980 -996 0
-71 -980 996 0
360 765 -997 0
360 -765 997 0
-360 765 997 0
-360 -765 -997 0
253 998 -999 0
253 -998 999 0
-253 998 999 0
-253 -998 -999 0
1000 1001 1002 0
1000 -1001 -1002 0
-1000 1001 -1002 0
-1000 -1001 1002 0
119 609 -1003 0
119 -609 1003 0
-119 609 1003 0
-119 -609 -1003 0
1004 1005 1006 0
1004 -1005 -1006 0
-1004 1005 -1006 0
-1004 -1005 1006 0
545 930 1007 0
545 -930 -1007 0
-545 930 -1007 0
-545 -930 1007 0
659 1008 -1009 0
659 -1008 1009 0
-659 1008 1009 0
-659 -1008 -1009 0
919 1010 1011 0
919 -1010 -1011 0
-919 1010 -1011 0
-919 -1010 1011 0
388 1012 1013 0
388 -1012 -1013 0
-388 1012 -1013 0
-388 -1012 1013 0
838 972 1014 0
838 -972 -1014 0
-838 972 -1014 0
-838 -972 1014 0
686 940 -1015 0
686 -940 1015 0
-686 940 1015 0
-686 -940 -1015 0
614 689 1016 0
614 -689 -1016 0
-614 689 -1016 0
-614 -689 1016 0
385 777 1017 0
385 -777 -1017 0
-385 777 -1017 0
-385 -777 1017 0
635 731 1018 0
635 -731 -1018 0
-635 731 -1018 0
-635 -731 1018 0
316 732 922 0
316 -732 -922 0
-316 732 -922 0
-316 -732 922 0
342 936 -1019 0
342 -936 1019 0
-342 936 1019 0
-342 -936 -1019 0
249 601 -1019 0
249 -601 1019 0
-249 601 1019 0
-249 -601 -1019 0
879 1020 1021 0
879 -1020 -1021 0
-879 1020 -1021 0
-879 -1020 1021 0
830 873 -1022 0
830 -873 1022 0
-830 873 1022 0
-830 -873 -1022 0
476 875 -1023 0
476 -875 1023 0
-476 875 1023 0
-476 -875 -1023 0
542 697 -744 0
542 -697 744 0
-542 697 744 0
-542 -697 -744 0
924 944 -1024 0
924 -944 1024 0
-924 944 1024 0
-924 -944 -1024 0
112 243 652 0
112 -243 -652 0
-112 243 -652 0
-112 -243 652 0
926 1025 1026 0
926 -1025 -1026 0
-926 1025 -1026 0
-926 -1025 1026 0
790 1027 1028 0
790 -1027 -1028 0
-790 1027 -1028 0
-790 -1027 1028 0
982 1029 1030 0
982 -1029 -1030 0
-982 1029 -1030 0
-982 -1029 1030 0
263 852 -860 0
263 -852 860 0
-263 852 860 0
-263 -852 -860 0
748 1031 -1032 0
748 -1031 1032 0
-748 1031 1032 0
-748 -1031 -1032 0
108 354 -1033 0
108 -354 1033 0
-108 354 1033 0
-108 -354 -1033 0
804 1034 1035 0
804 -1034 -1035 0
-804 1034 -1035 0
-804 -1034 1035 0
973 1036 -1037 0
973 -1036 1037 0
-973 1036 1037 0
-973 -1036 -1037 0
460 491 -1031 0
460 -491 1031 0
-460 491 1031 0
-460 -491 -1031 0
963 1038 -1039 0
963 -1038 1039 0
-963 1038 1039 0
-963 -1038 -1039 0
501 983 1040 0
501 -983 -1040 0
-501 983 -1040 0
-501 -983 1040 0
917 1038 1041 0
917 -1038 -1041 0
-917 1038 -1041 0
-917 -1038 1041 0
90 210 250 0
90 -210 -250 0
-90 210 -250 0
-90 -210 250 0
538 670 -1042 0
538 -670 1042 0
-538 670 1042 0
-538 -670 -1042 0
643 991 -993 0
643 -991 993 0
-643 991 993 0
-643 -991 -993 0
93 433 -1043 0
93 -433 1043 0
-93 433 1043 0
-93 -433 -1043 0
585 660 1044 0
585 -660 -1044 0
-585 660 -1044 0
-585 -660 1044 0
837 907 1045 0
837 -907 -1045 0
-837 907 -1045 0
-837 -907 1045 0
20 1046 1047 0
20 -1046 -1047 0
-20 1046 -1047 0
-20 -1046 1047 0
103 487 596 0
103 -487 -596 0
-103 487 -596 0
-103 -487 596 0
526 627 908 0
526 -627 -908 0
-526 627 -908 0
-526 -627 908 0
568 775 -1048 0
568 -775 1048 0
-568 775 1048 0
-568 -775 -1048 0
325 819 1049 0
325 -819 -1049 0
-325 819 -1049 0
-325 -819 1049 0
794 854 -939 0
794 -854 939 0
-794 854 939 0
-794 -854 -939 0
857 1050 1051 0
857 -1050 -1051 0
-857 1050 -1051 0
-857 -1050 1051 0
725 920 1032 0
725 -920 -1032 0
-725 920 -1032 0
-725 -920 1032 0
569 1052 -1053 0
569 -1052 1053 0
-569 1052 1053 0
-569 -1052 -1053 0
771 1004 1054 0
771 -1004 -1054 0
-771 1004 -1054 0
-771 -1004 1054 0
470 527 597 0
470 -527 -597 0
-470 527 -597 0
-470 -527 597 0
650 965 1055 0
650 -965 -1055 0
-650 965 -1055 0
-650 -965 1055 0
832 1056 1057 0
832 -1056 -1057 0
-832 1056 -1057 0
-832 -1056 1057 0
517 1040 1058 0
517 -1040 -1058 0
-517 1040 -1058 0
-517 -1040 1058 0
496 511 -1046 0
496 -511 1046 0
-496 511 1046 0
-496 -511 -1046 0
287 712 1036 0
287 -712 -1036 0
-287 712 -1036 0
-287 -712 1036 0
375 1020 1059 0
375 -1020 -1059 0
-375 1020 -1059 0
-375 -1020 1059 0
219 975 -1060 0
219 -975 1060 0
-219 975 1060 0
-219 -975 -1060 0
636 960 -1061 0
636 -960 1061 0
-636 960 1061 0
-636 -960 -1061 0
687 1062 1063 0
687 -1062 -1063 0
-687 1062 -1063 0
-687 -1062 1063 0
514 1064 -1065 0
514 -1064 1065 0
-514 1064 1065 0
-514 -1064 -1065 0
894 941 1066 0
894 -941 -1066 0
-894 941 -1066 0
-894 -941 1066 0
254 452 961 0
254 -452 -961 0
-254 452 -961 0
-254 -452 961 0
739 1067 1068 0
739 -1067 -1068 0
-739 1067 -1068 0
-739 -1067 1068 0
420 1069 -1070 0
420 -1069 1070 0
-420 1069 1070 0
-420 -1069 -1070 0
9 839 -898 0
9 -839 898 0
-9 839 898 0
-9 -839 -898 0
626 1071 -1072 0
626 -1071 1072 0
-626 1071 1072 0
-626 -1071 -1072 0
139 154 1073 0
139 -154 -1073 0
-139 154 -1073 0
-139 -154 1073 0
469 1074 -1075 0
469 -1074 1075 0
-469 1074 1075 0
-469 -1074 -1075 0
226 1016 -1027 0
226 -1016 1027 0
-226 1016 1027 0
-226 -1016 -1027 0
555 656 736 0
555 -656 -736 0
-555 656 -736 0
-555 -656 736 0
245 690 796 0
245 -690 -796 0
-245 690 -796 0
-245 -690 796 0
1076 1077 -1078 0
1076 -1077 1078 0
-1076 1077 1078 0
-1076 -1077 -1078 0
189 414 782 0
189 -414 -782 0
-189 414 -782 0
-189 -414 782 0
515 717 -1079 0
515 -717 1079 0
-515 717 1079 0
-515 -717 -1079 0
931 954 -1080 0
931 -954 1080 0
-931 954 1080 0
-931 -954 -1080 0
737 914 1081 0
737 -914 -1081 0
-737 914 -1081 0
-737 -914 1081 0
36 80 -1082 0
36 -80 1082 0
-36 80 1082 0
-36 -80 -1082 0
134 654 -1083 0
134 -654 1083 0
-134 654 1083 0
-134 -654 -1083 0
795 889 -1084 0
795 -889 1084 0
-795 889 1084 0
-795 -889 -1084 0
646 682 792 0
646 -682 -792 0
-646 682 -792 0
-646 -682 792 0
1085 1086 -1087 0
1085 -1086 1087 0
-1085 1086 1087 0
-1085 -1086 -1087 0
901 1079 -1088 0
901 -1079 1088 0
-901 1079 1088 0
-901 -1079 -1088 0
599 938 945 0
599 -938 -945 0
-599 938 -945 0
-599 -938 945 0
831 864 884 0
831 -864 -884 0
-831 864 -884 0
-831 -864 884 0
94 448 -976 0
94 -448 976 0
-94 448 976 0
-94 -448 -976 0
116 135 530 0
116 -135 -530 0
-116 135 -530 0
-116 -135 530 0
665 1089 -1090 0
665 -1089 1090 0
-665 1089 1090 0
-665 -1089 -1090 0
400 956 1091 0
400 -956 -1091 0
-400 956 -1091 0
-400 -956 1091 0
621 1012 -1092 0
621 -1012 1092 0
-621 1012 1092 0
-621 -1012 -1092 0
331 915 -1093 0
331 -915 1093 0
-331 915 1093 0
-331 -915 -1093 0
59 370 1094 0
59 -370 -1094 0
-59 370 -1094 0
-59 -370 1094 0
18 190 -1052 0
18 -190 1052 0
-18 190 1052 0
-18 -190 -1052 0
698 1076 1095 0
698 -1076 -1095 0
-698 1076 -1095 0
-698 -1076 1095 0
942 1096 -1097 0
942 -1096 1097 0
-942 1096 1097 0
-942 -1096 -1097 0
691 798 1053 0
691 -798 -1053 0
-691 798 -1053 0
-691 -798 1053 0
33 173 -1098 0
33 -173 1098 0
-33 173 1098 0
-33 -173 -1098 0
878 910 1099 0
878 -910 -1099 0
-878 910 -1099 0
-878 -910 1099 0
351 799 -984 0
351 -799 984 0
-351 799 984 0
-351 -799 -984 0
887 913 1100 0
887 -913 -1100 0
-887 913 -1100 0
-887 -913 1100 0
344 1101 -1102 0
344 -1101 1102 0
-344 1101 1102 0
-344 -1101 -1102 0
181 578 1085 0
181 -578 -1085 0
-181 578 -1085 0
-181 -578 1085 0
426 1086 -1103 0
426 -1086 1103 0
-426 1086 1103 0
-426 -1086 -1103 0
195 211 754 0
195 -211 -754 0
-195 211 -754 0
-195 -211 754 0
921 1069 1104 0
921 -1069 -1104 0
-921 1069 -1104 0
-921 -1069 1104 0
221 1048 -1105 0
221 -1048 1105 0
-221 1048 1105 0
-221 -1048 -1105 0
396 876 883 0
396 -876 -883 0
-396 876 -883 0
-396 -876 883 0
61 244 -1087 0
61 -244 1087 0
-61 244 1087 0
-61 -244 -1087 0
968 1106 1107 0
968 -1106 -1107 0
-968 1106 -1107 0
-968 -1106 1107 0
497 598 -1000 0
497 -598 1000 0
-497 598 1000 0
-497 -598 -1000 0
166 397 -1108 0
166 -397 1108 0
-166 397 1108 0
-166 -397 -1108 0
841 1005 1109 0
841 -1005 -1109 0
-841 1005 -1109 0
-841 -1005 1109 0
574 742 1110 0
574 -742 -1110 0
-574 742 -1110 0
-574 -742 1110 0
104 365 1111 0
104 -365 -1111 0
-104 365 -1111 0
-104 -365 1111 0
1024 1034 -1112 0
1024 -1034 1112 0
-1024 1034 1112 0
-1024 -1034 -1112 0
632 1033 -1113 0
632 -1033 1113 0
-632 1033 1113 0
-632 -1033 -1113 0
1114 1115 -1116 0
1114 -1115 1116 0
-1114 1115 1116 0
-1114 -1115 -1116 0
242 850 1117 0
242 -850 -1117 0
-242 850 -1117 0
-242 -850 1117 0
642 1023 -1118 0
642 -1023 1118 0
-642 1023 1118 0
-642 -1023 -1118 0
493 1062 -1073 0
493 -1062 1073 0
-493 1062 1073 0
-493 -1062 -1073 0
310 644 1119 0
310 -644 -1119 0
-310 644 -1119 0
-310 -644 1119 0
99 895 1120 0
99 -895 -1120 0
-99 895 -1120 0
-99 -895 1120 0
235 251 -1121 0
235 -251 1121 0
-235 251 1121 0
-235 -251 -1121 0
138 847 -1106 0
138 -847 1106 0
-138 847 1106 0
-138 -847 -1106 0
713 1042 -1122 0
713 -1042 1122 0
-713 1042 1122 0
-713 -1042 -1122 0
848 888 -1114 0
848 -888 1114 0
-848 888 1114 0
-848 -888 -1114 0
163 1123 1124 0
163 -1123 -1124 0
-163 1123 -1124 0
-163 -1123 1124 0
21 498 -947 0
21 -498 947 0
-21 498 947 0
-21 -498 -947 0
179 1063 1125 0
179 -1063 -1125 0
-179 1063 -1125 0
-179 -1063 1125 0
855 1043 1077 0
855 -1043 -1077 0
-855 1043 -1077 0
-855 -1043 1077 0
728 811 -1126 0
728 -811 1126 0
-728 811 1126 0
-728 -811 -1126 0
160 441 1127 0
160 -441 -1127 0
-160 441 -1127 0
-160 -441 1127 0
707 903 -1128 0
707 -903 1128 0
-707 903 1128 0
-707 -903 -1128 0
437 869 989 0
437 -869 -989 0
-437 869 -989 0
-437 -869 989 0
552 778 1129 0
552 -778 -1129 0
-552 778 -1129 0
-552 -778 1129 0
223 1055 1095 0
223 -1055 -1095 0
-223 1055 -1095 0
-223 -1055 1095 0
42 1119 1130 0
42 -1119 -1130 0
-42 1119 -1130 0
-42 -1119 1130 0
5 683 1131 0
5 -683 -1131 0
-5 683 -1131 0
-5 -683 1131 0
692 970 1132 0
692 -970 -1132 0
-692 970 -1132 0
-692 -970 1132 0
480 1025 -1133 0
480 -1025 1133 0
-480 1025 1133 0
-480 -1025 -1133 0
255 1134 -1135 0
255 -1134 1135 0
-255 1134 1135 0
-255 -1134 -1135 0
477 863 -872 0
477 -863 872 0
-477 863 872 0
-477 -863 -872 0
329 483 610 0
329 -483 -610 0
-329 483 -610 0
-329 -483 610 0
484 805 -1091 0
484 -805 1091 0
-484 805 1091 0
-484 -805 -1091 0
407 455 -977 0
407 -455 977 0
-407 455 977 0
-407 -455 -977 0
475 911 1136 0
475 -911 -1136 0
-475 911 -1136 0
-475 -911 1136 0
499 937 -1137 0
499 -937 1137 0
-499 937 1137 0
-499 -937 -1137 0
612 1058 -1070 0
612 -1058 1070 0
-612 1058 1070 0
-612 -1058 -1070 0
345 814 1138 0
345 -814 -1138 0
-345 814 -1138 0
-345 -814 1138 0
718 801 -1121 0
718 -801 1121 0
-718 801 1121 0
-718 -801 -1121 0
357 904 -1139 0
357 -904 1139 0
-357 904 1139 0
-357 -904 -1139 0
279 1096 1140 0
279 -1096 -1140 0
-279 1096 -1140 0
-279 -1096 1140 0
259 791 1064 0
259 -791 -1064 0
-259 791 -1064 0
-259 -791 1064 0
757 1013 -1141 0
757 -1013 1141 0
-757 1013 1141 0
-757 -1013 -1141 0
202 1110 1142 0
202 -1110 -1142 0
-202 1110 -1142 0
-202 -1110 1142 0
471 565 1143 0
471 -565 -1143 0
-471 565 -1143 0
-471 -565 1143 0
966 1139 1144 0
966 -1139 -1144 0
-966 1139 -1144 0
-966 -1139 1144 0
1007 1145 -1146 0
1007 -1145 1146 0
-1007 1145 1146 0
-1007 -1145 -1146 0
1029 1041 -1147 0
1029 -1041 1147 0
-1029 1041 1147 0
-1029 -1041 -1147 0
512 1010 -1148 0
512 -1010 1148 0
-512 1010 1148 0
-512 -1010 -1148 0
880 1060 1136 0
880 -1060 -1136 0
-880 1060 -1136 0
-880 -1060 1136 0
992 1071 -1149 0
992 -1071 1149 0
-992 1071 1149 0
-992 -1071 -1149 0
55 1144 -1150 0
55 -1144 1150 0
-55 1144 1150 0
-55 -1144 -1150 0
215 311 821 0
215 -311 -821 0
-215 311 -821 0
-215 -311 821 0
257 1011 1151 0
257 -1011 -1151 0
-257 1011 -1151 0
-257 -1011 1151 0
236 1101 -1152 0
236 -1101 1152 0
-236 1101 1152 0
-236 -1101 -1152 0
299 303 -1153 0
299 -303 1153 0
-299 303 1153 0
-299 -303 -1153 0
645 822 905 0
645 -822 -905 0
-645 822 -905 0
-645 -822 905 0
653 998 1123 0
653 -998 -1123 0
-653 998 -1123 0
-653 -998 1123 0
429 509 1154 0
429 -509 -1154 0
-429 509 -1154 0
-429 -509 1154 0
289 773 1155 0
289 -773 -1155 0
-289 773 -1155 0
-289 -773 1155 0
560 630 -1152 0
560 -630 1152 0
-560 630 1152 0
-560 -630 -1152 0
276 548 685 0
276 -548 -685 0
-276 548 -685 0
-276 -548 685 0
120 1003 1111 0
120 -1003 -1111 0
-120 1003 -1111 0
-120 -1003 1111 0
446 1118 1156 0
446 -1118 -1156 0
-446 1118 -1156 0
-446 -1118 1156 0
700 871 -1157 0
700 -871 1157 0
-700 871 1157 0
-700 -871 -1157 0
558 655 -1158 0
558 -655 1158 0
-558 655 1158 0
-558 -655 -1158 0
229 606 986 0
229 -606 -986 0
-229 606 -986 0
-229 -606 986 0
1072 1074 1109 0
1072 -1074 -1109 0
-1072 1074 -1109 0
-1072 -1074 1109 0
117 290 1147 0
117 -290 -1147 0
-117 290 -1147 0
-117 -290 1147 0
105 492 724 0
105 -492 -724 0
-105 492 -724 0
-105 -492 724 0
693 990 1142 0
693 -990 -1142 0
-693 990 -1142 0
-693 -990 1142 0
779 1159 -1160 0
779 -1159 1160 0
-779 1159 1160 0
-779 -1159 -1160 0
6 770 -1117 0
6 -770 1117 0
-6 770 1117 0
-6 -770 -1117 0
216 546 -1161 0
216 -546 1161 0
-216 546 1161 0
-216 -546 -1161 0
346 943 -1081 0
346 -943 1081 0
-346 943 1081 0
-346 -943 -1081 0
366 1015 1162 0
366 -1015 -1162 0
-366 1015 -1162 0
-366 -1015 1162 0
227 1026 -1092 0
227 -1026 1092 0
-227 1026 1092 0
-227 -1026 -1092 0
586 967 1163 0
586 -967 -1163 0
-586 967 -1163 0
-586 -967 1163 0
1054 1164 -1165 0
1054 -1164 1165 0
-1054 1164 1165 0
-1054 -1164 -1165 0
239 308 -1166 0
239 -308 1166 0
-239 308 1166 0
-239 -308 -1166 0
785 812 -1167 0
785 -812 1167 0
-785 812 1167 0
-785 -812 -1167 0
466 825 893 0
466 -825 -893 0
-466 825 -893 0
-466 -825 893 0
537 705 -1168 0
537 -705 1168 0
-537 705 1168 0
-537 -705 -1168 0
549 1126 1169 0
549 -1126 -1169 0
-549 1126 -1169 0
-549 -1126 1169 0
140 502 -1156 0
140 -502 1156 0
-140 502 1156 0
-140 -502 -1156 0
264 1017 1170 0
264 -1017 -1170 0
-264 1017 -1170 0
-264 -1017 1170 0
269 633 721 0
269 -633 -721 0
-269 633 -721 0
-269 -633 721 0
170 187 -1148 0
170 -187 1148 0
-170 187 1148 0
-170 -187 -1148 0
217 1145 1171 0
217 -1145 -1171 0
-217 1145 -1171 0
-217 -1145 1171 0
671 885 -1112 0
671 -885 1112 0
-671 885 1112 0
-671 -885 -1112 0
591 780 -793 0
591 -780 793 0
-591 780 793 0
-591 -780 -793 0
820 1044 -1172 0
820 -1044 1172 0
-820 1044 1172 0
-820 -1044 -1172 0
273 607 -1008 0
273 -607 1008 0
-273 607 1008 0
-273 -607 -1008 0
113 616 1009 0
113 -616 -1009 0
-113 616 -1009 0
-113 -616 1009 0
918 1089 1173 0
918 -1089 -1173 0
-918 1089 -1173 0
-918 -1089 1173 0
802 1113 -1146 0
802 -1113 1146 0
-802 1113 1146 0
-802 -1113 -1146 0
722 925 1094 0
722 -925 -1094 0
-722 925 -1094 0
-722 -925 1094 0
368 842 877 0
368 -842 -877 0
-368 842 -877 0
-368 -842 877 0
955 1174 -1175 0
955 -1174 1175 0
-955 1174 1175 0
-955 -1174 -1175 0
978 1066 1093 0
978 -1066 -1093 0
-978 1066 -1093 0
-978 -1066 1093 0
122 468 -1102 0
122 -468 1102 0
-122 468 1102 0
-122 -468 -1102 0
83 760 995 0
83 -760 -995 0
-83 760 -995 0
-83 -760 995 0
197 1090 1105 0
197 -1090 -1105 0
-197 1090 -1105 0
-197 -1090 1105 0
141 230 -997 0
141 -230 997 0
-141 230 997 0
-141 -230 -997 0
304 677 -803 0
304 -677 803 0
-304 677 803 0
-304 -677 -803 0
766 1039 -1176 0
766 -1039 1176 0
-766 1039 1176 0
-766 -1039 -1176 0
1061 1155 1177 0
1061 -1155 -1177 0
-1061 1155 -1177 0
-1061 -1155 1177 0
193 348 807 0
193 -348 -807 0
-193 348 -807 0
-193 -348 807 0
372 826 1178 0
372 -826 -1178 0
-372 826 -1178 0
-372 -826 1178 0
319 912 1179 0
319 -912 -1179 0
-319 912 -1179 0
-319 -912 1179 0
355 361 -1179 0
355 -361 1179 0
-355 361 1179 0
-355 -361 -1179 0
158 701 -764 0
158 -701 764 0
-158 701 764 0
-158 -701 -764 0
377 1134 1180 0
377 -1134 -1180 0
-377 1134 -1180 0
-377 -1134 1180 0
270 1014 -1171 0
270 -1014 1171 0
-270 1014 1171 0
-270 -1014 -1171 0
143 840 1181 0
143 -840 -1181 0
-143 840 -1181 0
-143 -840 1181 0
726 971 -1182 0
726 -971 1182 0
-726 971 1182 0
-726 -971 -1182 0
95 519 -1162 0
95 -519 1162 0
-95 519 1162 0
-95 -519 -1162 0
305 378 1183 0
305 -378 -1183 0
-305 378 -1183 0
-305 -378 1183 0
522 818 -1184 0
522 -818 1184 0
-522 818 1184 0
-522 -818 -1184 0
647 662 1067 0
647 -662 -1067 0
-647 662 -1067 0
-647 -662 1067 0
327 916 -1154 0
327 -916 1154 0
-327 916 1154 0
-327 -916 -1154 0
789 1035 1078 0
789 -1035 -1078 0
-789 1035 -1078 0
-789 -1035 1078 0
222 1172 -1180 0
222 -1172 1180 0
-222 1172 1180 0
-222 -1172 -1180 0
1159 1181 -1185 0
1159 -1181 1185 0
-1159 1181 1185 0
-1159 -1181 -1185 0
62 886 1186 0
62 -886 -1186 0
-62 886 -1186 0
-62 -886 1186 0
196 680 1135 0
196 -680 -1135 0
-196 680 -1135 0
-196 -680 1135 0
663 749 -994 0
663 -749 994 0
-663 749 994 0
-663 -749 -994 0
510 513 -1075 0
510 -513 1075 0
-510 513 1075 0
-510 -513 -1075 0
86 164 462 0
86 -164 -462 0
-86 164 -462 0
-86 -164 462 0
458 579 1187 0
458 -579 -1187 0
-458 579 -1187 0
-458 -579 1187 0
719 959 -1104 0
719 -959 1104 0
-719 959 1104 0
-719 -959 -1104 0
198 442 809 0
198 -442 -809 0
-198 442 -809 0
-198 -442 809 0
531 1050 1056 0
531 -1050 -1056 0
-531 1050 -1056 0
-531 -1050 1056 0
439 583 605 0
439 -583 -605 0
-439 583 -605 0
-439 -583 605 0
114 343 -1188 0
114 -343 1188 0
-114 343 1188 0
-114 -343 -1188 0
543 927 -1107 0
543 -927 1107 0
-543 927 1107 0
-543 -927 -1107 0
317 672 923 0
317 -672 -923 0
-317 672 -923 0
-317 -672 923 0
602 808 -1115 0
602 -808 1115 0
-602 808 1115 0
-602 -808 -1115 0
362 1189 -1190 0
362 -1189 1190 0
-362 1189 1190 0
-362 -1189 -1190 0
709 720 1133 0
709 -720 -1133 0
-709 720 -1133 0
-709 -720 1133 0
703 1022 -1030 0
703 -1022 1030 0
-703 1022 1030 0
-703 -1022 -1030 0
54 1068 1080 0
54 -1068 -1080 0
-54 1068 -1080 0
-54 -1068 1080 0
45 949 1059 0
45 -949 -1059 0
-45 949 -1059 0
-45 -949 1059 0
324 833 -899 0
324 -833 899 0
-324 833 899 0
-324 -833 -899 0
472 695 768 0
472 -695 -768 0
-472 695 -768 0
-472 -695 768 0
48 489 561 0
48 -489 -561 0
-48 489 -561 0
-48 -489 561 0
175 1170 -1187 0
175 -1170 1187 0
-175 1170 1187 0
-175 -1170 -1187 0
161 1088 -1129 0
161 -1088 1129 0
-161 1088 1129 0
-161 -1088 -1129 0
856 1125 1164 0
856 -1125 -1164 0
-856 1125 -1164 0
-856 -1125 1164 0
1151 1189 1191 0
1151 -1189 -1191 0
-1151 1189 -1191 0
-1151 -1189 1191 0
415 827 1161 0
415 -827 -1161 0
-415 827 -1161 0
-415 -827 1161 0
182 678 -1103 0
182 -678 1103 0
-182 678 1103 0
-182 -678 -1103 0
332 600 -667 0
332 -600 667 0
-332 600 667 0
-332 -600 -667 0
184 434 948 0
184 -434 -948 0
-184 434 -948 0
-184 -434 948 0
252 688 1097 0
252 -688 -1097 0
-252 688 -1097 0
-252 -688 1097 0
280 528 -1150 0
280 -528 1150 0
-280 528 1150 0
-280 -528 -1150 0
890 1065 -1158 0
890 -1065 1158 0
-890 1065 1158 0
-890 -1065 -1158 0
56 478 -1122 0
56 -478 1122 0
-56 478 1122 0
-56 -478 -1122 0
440 1128 -1192 0
440 -1128 1192 0
-440 1128 1192 0
-440 -1128 -1192 0
424 710 1084 0
424 -710 -1084 0
-424 710 -1084 0
-424 -710 1084 0
1045 1193 1194 0
1045 -1193 -1194 0
-1045 1193 -1194 0
-1045 -1193 1194 0
274 422 706 0
274 -422 -706 0
-274 422 -706 0
-274 -422 706 0
389 1168 1195 0
389 -1168 -1195 0
-389 1168 -1195 0
-389 -1168 1195 0
1049 1116 -1127 0
1049 -1116 1127 0
-1049 1116 1127 0
-1049 -1116 -1127 0
176 639 1006 0
176 -639 -1006 0
-176 639 -1006 0
-176 -639 1006 0
781 950 -1183 0
781 -950 1183 0
-781 950 1183 0
-781 -950 -1183 0
155 1100 1137 0
155 -1100 -1137 0
-155 1100 -1137 0
-155 -1100 1137 0
503 1160 -1196 0
503 -1160 1196 0
-503 1160 1196 0
-503 -1160 -1196 0
563 637 1178 0
563 -637 -1178 0
-563 637 -1178 0
-563 -637 1178 0
381 634 -823 0
381 -634 823 0
-381 634 823 0
-381 -634 -823 0
232 974 -1149 0
232 -974 1149 0
-232 974 1149 0
-232 -974 -1149 0
96 1057 -1195 0
96 -1057 1195 0
-96 1057 1195 0
-96 -1057 -1195 0
386 1140 -1163 0
386 -1140 1163 0
-386 1140 1163 0
-386 -1140 -1163 0
784 1037 1184 0
784 -1037 -1184 0
-784 1037 -1184 0
-784 -1037 1184 0
734 1166 -1185 0
734 -1166 1185 0
-734 1166 1185 0
-734 -1166 -1185 0
296 999 -1130 0
296 -999 1130 0
-296 999 1130 0
-296 -999 -1130 0
246 584 -1141 0
246 -584 1141 0
-246 584 1141 0
-246 -584 -1141 0
988 1197 1198 0
988 -1197 -1198 0
-988 1197 -1198 0
-988 -1197 1198 0
126 1167 1199 0
126 -1167 -1199 0
-126 1167 -1199 0
-126 -1167 1199 0
675 1028 1193 0
675 -1028 -1193 0
-675 1028 -1193 0
-675 -1028 1193 0
68 520 -681 0
68 -520 681 0
-68 520 681 0
-68 -520 -681 0
845 957 -1174 0
845 -957 1174 0
-845 957 1174 0
-845 -957 -1174 0
951 1153 -1157 0
951 -1153 1157 0
-951 1153 1157 0
-951 -1153 -1157 0
146 199 -928 0
146 -199 928 0
-146 199 928 0
-146 -199 -928 0
608 669 715 0
608 -669 -715 0
-608 669 -715 0
-608 -669 715 0
815 1047 1197 0
815 -1047 -1197 0
-815 1047 -1197 0
-815 -1047 1197 0
851 865 -1051 0
851 -865 1051 0
-851 865 1051 0
-851 -865 -1051 0
752 1083 -1165 0
752 -1083 1165 0
-752 1083 1165 0
-752 -1083 -1165 0
363 481 1021 0
363 -481 -1021 0
-363 481 -1021 0
-363 -481 1021 0
1098 1120 1173 0
1098 -1120 -1173 0
-1098 1120 -1173 0
-1098 -1120 1173 0
27 74 -1131 0
27 -74 1131 0
-27 74 1131 0
-27 -74 -1131 0
123 314 -1182 0
123 -314 1182 0
-123 314 1182 0
-123 -314 -1182 0
539 962 1169 0
539 -962 -1169 0
-539 962 -1169 0
-539 -962 1169 0
111 349 -952 0
111 -349 952 0
-111 349 952 0
-111 -349 -952 0
617 800 -829 0
617 -800 829 0
-617 800 829 0
-617 -800 -829 0
849 946 1192 0
849 -946 -1192 0
-849 946 -1192 0
-849 -946 1192 0
156 788 -932 0
156 -788 932 0
-156 788 932 0
-156 -788 -932 0
334 729 -1190 0
334 -729 1190 0
-334 729 1190 0
-334 -729 -1190 0
233 1099 -1194 0
233 -1099 1194 0
-233 1099 1194 0
-233 -1099 -1194 0
581 704 -1177 0
581 -704 1177 0
-581 704 1177 0
-581 -704 -1177 0
534 758 858 0
534 -758 -858 0
-534 758 -858 0
-534 -758 858 0
676 958 1132 0
676 -958 -1132 0
-676 958 -1132 0
-676 -958 1132 0
408 417 987 0
408 -417 -987 0
-408 417 -987 0
-408 -417 987 0
529 753 -1143 0
529 -753 1143 0
-529 753 1143 0
-529 -753 -1143 0
985 1124 -1176 0
985 -1124 1176 0
-985 1124 1176 0
-985 -1124 -1176 0
30 853 1082 0
30 -853 -1082 0
-30 853 -1082 0
-30 -853 1082 0
88 352 1001 0
88 -352 -1001 0
-88 352 -1001 0
-88 -352 1001 0
144 494 1191 0
144 -494 -1191 0
-144 494 -1191 0
-144 -494 1191 0
564 969 -1198 0
564 -969 1198 0
-564 969 1198 0
-564 -969 -1198 0
673 1018 1108 0
673 -1018 -1108 0
-673 1018 -1108 0
-673 -1018 1108 0
786 934 1196 0
786 -934 -1196 0
-786 934 -1196 0
-786 -934 1196 0
283 566 -674 0
283 -566 674 0
-283 566 674 0
-283 -566 -674 0
1002 1188 -1200 0
1002 -1188 1200 0
-1002 1188 1200 0
-1002 -1188 -1200 0
277 891 -1186 0
277 -891 1186 0
-277 891 1186 0
-277 -891 -1186 0
572 881 -996 0
572 -881 996 0
-572 881 996 0
-572 -881 -996 0
224 743 981 0
224 -743 -981 0
-224 743 -981 0
-224 -743 981 0
684 979 -1200 0
684 -979 1200 0
-684 979 1200 0
-684 -979 -1200 0
1138 1175 -1199 0
1138 -1175 1199 0
-1138 1175 1199 0
-1138 -1175 -1199 0
