c description: Tseitin formula on random 3-regular graph on 800 verices, with odd charge
c generator: CNFgen (0.9.6)
c copyright: (C) 2012-2026 Massimo Lauria <massimo.lauria@uniroma1.it>
c url: https://massimolauria.net/cnfgen
c command line: cnfgen tseitin 800 3
c
p cnf 1200 3200
1 2 3 0
1 -2 -3 0
-1 2 -3 0
-1 -2 3 0
4 5 -6 0
4 -5 6 0
-4 5 6 0
-4 -5 -6 0
7 8 9 0
7 -8 -9 0
-7 8 -9 0
-7 -8 9 0
10 11 12 0
10 -11 -12 0
-10 11 -12 0
-10 -11 12 0
13 14 -15 0
13 -14 15 0
-13 14 15 0
-13 -14 -15 0
16 17 18 0
16 -17 -18 0
-16 17 -18 0
-16 -17 18 0
19 20 -21 0
19 -20 21 0
-19 20 21 0
-19 -20 -21 0
22 23 24 0
22 -23 -24 0
-22 23 -24 0
-22 -23 24 0
25 26 27 0
25 -26 -27 0
-25 26 -27 0
-25 -26 27 0
28 29 30 0
28 -29 -30 0
-28 29 -30 0
-28 -29 30 0
31 32 33 0
31 -32 -33 0
-31 32 -33 0
-31 -32 33 0
34 35 36 0
34 -35 -36 0
-34 35 -36 0
-34 -35 36 0
37 38 39 0
37 -38 -39 0
-37 38 -39 0
-37 -38 39 0
40 41 42 0
40 -41 -42 0
-40 41 -42 0
-40 -41 42 0
43 44 45 0
43 -44 -45 0
-43 44 -45 0
-43 -44 45 0
46 47 48 0
46 -47 -48 0
-46 47 -48 0
-46 -47 48 0
49 50 -51 0
49 -50 51 0
-49 50 51 0
-49 -50 -51 0
52 53 -54 0
52 -53 54 0
-52 53 54 0
-52 -53 -54 0
10 55 -56 0
10 -55 56 0
-10 55 56 0
-10 -55 -56 0
57 58 -59 0
57 -58 59 0
-57 58 59 0
-57 -58 -59 0
60 61 -62 0
60 -61 62 0
-60 61 62 0
-60 -61 -62 0
63 64 -65 0
63 -64 65 0
-63 64 65 0
-63 -64 -65 0
19 66 -67 0
19 -66 67 0
-19 66 67 0
-19 -66 -67 0
25 68 69 0
25 -68 -69 0
-25 68 -69 0
-25 -68 69 0
70 71 72 0
70 -71 -72 0
-70 71 -72 0
-70 -71 72 0
73 74 75 0
73 -74 -75 0
-73 74 -75 0
-73 -74 75 0
57 76 -77 0
57 -76 77 0
-57 76 77 0
-57 -76 -77 0
78 79 80 0
78 -79 -80 0
-78 79 -80 0
-78 -79 80 0
34 81 -82 0
34 -81 82 0
-34 81 82 0
-34 -81 -82 0
83 84 -85 0
83 -84 85 0
-83 84 85 0
-83 -84 -85 0
63 86 -87 0
63 -86 87 0
-63 86 87 0
-63 -86 -87 0
88 89 -90 0
88 -89 90 0
-88 89 90 0
-88 -89 -90 0
91 92 93 0
91 -92 -93 0
-91 92 -93 0
-91 -92 93 0
94 95 -96 0
94 -95 96 0
-94 95 96 0
-94 -95 -96 0
97 98 -99 0
97 -98 99 0
-97 98 99 0
-97 -98 -99 0
100 101 102 0
100 -101 -102 0
-100 101 -102 0
-100 -101 102 0
103 104 105 0
103 -104 -105 0
-103 104 -105 0
-103 -104 105 0
83 106 107 0
83 -106 -107 0
-83 106 -107 0
-83 -106 107 0
108 109 -110 0
108 -109 110 0
-108 109 110 0
-108 -109 -110 0
111 112 113 0
111 -112 -113 0
-111 112 -113 0
-111 -112 113 0
114 115 116 0
114 -115 -116 0
-114 115 -116 0
-114 -115 116 0
117 118 119 0
117 -118 -119 0
-117 118 -119 0
-117 -118 119 0
120 121 -122 0
120 -121 122 0
-120 121 122 0
-120 -121 -122 0
123 124 125 0
123 -124 -125 0
-123 124 -125 0
-123 -124 125 0
126 127 128 0
126 -127 -128 0
-126 127 -128 0
-126 -127 128 0
129 130 131 0
129 -130 -131 0
-129 130 -131 0
-129 -130 131 0
132 133 -134 0
132 -133 134 0
-132 133 134 0
-132 -133 -134 0
97 135 -136 0
97 -135 136 0
-97 135 136 0
-97 -135 -136 0
137 138 139 0
137 -138 -139 0
-137 138 -139 0
-137 -138 139 0
140 141 -142 0
140 -141 142 0
-140 141 142 0
-140 -141 -142 0
143 144 -145 0
143 -144 145 0
-143 144 145 0
-143 -144 -145 0
146 147 -148 0
146 -147 148 0
-146 147 148 0
-146 -147 -148 0
126 149 -150 0
126 -149 150 0
-126 149 150 0
-126 -149 -150 0
151 152 153 0
151 -152 -153 0
-151 152 -153 0
-151 -152 153 0
73 154 -155 0
73 -154 155 0
-73 154 155 0
-73 -154 -155 0
156 157 -158 0
156 -157 158 0
-156 157 158 0
-156 -157 -158 0
159 160 161 0
159 -160 -161 0
-159 160 -161 0
-159 -160 161 0
162 163 164 0
162 -163 -164 0
-162 163 -164 0
-162 -163 164 0
135 165 -166 0
135 -165 166 0
-135 165 166 0
-135 -165 -166 0
167 168 -169 0
167 -168 169 0
-167 168 169 0
-167 -168 -169 0
170 171 172 0
170 -171 -172 0
-170 171 -172 0
-170 -171 172 0
173 174 -175 0
173 -174 175 0
-173 174 175 0
-173 -174 -175 0
176 177 178 0
176 -177 -178 0
-176 177 -178 0
-176 -177 178 0
179 180 181 0
179 -180 -181 0
-179 180 -181 0
-179 -180 181 0
182 183 184 0
182 -183 -184 0
-182 183 -184 0
-182 -183 184 0
185 186 187 0
185 -186 -187 0
-185 186 -187 0
-185 -186 187 0
108 188 189 0
108 -188 -189 0
-108 188 -189 0
-108 -188 189 0
190 191 -192 0
190 -191 192 0
-190 191 192 0
-190 -191 -192 0
193 194 -195 0
193 -194 195 0
-193 194 195 0
-193 -194 -195 0
137 196 197 0
137 -196 -197 0
-137 196 -197 0
-137 -196 197 0
31 198 199 0
31 -198 -199 0
-31 198 -199 0
-31 -198 199 0
200 201 202 0
200 -201 -202 0
-200 201 -202 0
-200 -201 202 0
203 204 205 0
203 -204 -205 0
-203 204 -205 0
-203 -204 205 0
206 207 208 0
206 -207 -208 0
-206 207 -208 0
-206 -207 208 0
123 209 -210 0
123 -209 210 0
-123 209 210 0
-123 -209 -210 0
211 212 213 0
211 -212 -213 0
-211 212 -213 0
-211 -212 213 0
214 215 -216 0
214 -215 216 0
-214 215 216 0
-214 -215 -216 0
217 218 219 0
217 -218 -219 0
-217 218 -219 0
-217 -218 219 0
211 220 -221 0
211 -220 221 0
-211 220 221 0
-211 -220 -221 0
222 223 224 0
222 -223 -224 0
-222 223 -224 0
-222 -223 224 0
225 226 227 0
225 -226 -227 0
-225 226 -227 0
-225 -226 227 0
11 228 -229 0
11 -228 229 0
-11 228 229 0
-11 -228 -229 0
230 231 -232 0
230 -231 232 0
-230 231 232 0
-230 -231 -232 0
233 234 235 0
233 -234 -235 0
-233 234 -235 0
-233 -234 235 0
64 236 237 0
64 -236 -237 0
-64 236 -237 0
-64 -236 237 0
238 239 240 0
238 -239 -240 0
-238 239 -240 0
-238 -239 240 0
241 242 -243 0
241 -242 243 0
-241 242 243 0
-241 -242 -243 0
244 245 246 0
244 -245 -246 0
-244 245 -246 0
-244 -245 246 0
230 247 -248 0
230 -247 248 0
-230 247 248 0
-230 -247 -248 0
249 250 -251 0
249 -250 251 0
-249 250 251 0
-249 -250 -251 0
252 253 254 0
252 -253 -254 0
-252 253 -254 0
-252 -253 254 0
255 256 -257 0
255 -256 257 0
-255 256 257 0
-255 -256 -257 0
66 258 259 0
66 -258 -259 0
-66 258 -259 0
-66 -258 259 0
260 261 -262 0
260 -261 262 0
-260 261 262 0
-260 -261 -262 0
32 263 -264 0
32 -263 264 0
-32 263 264 0
-32 -263 -264 0
265 266 -267 0
265 -266 267 0
-265 266 267 0
-265 -266 -267 0
268 269 270 0
268 -269 -270 0
-268 269 -270 0
-268 -269 270 0
65 271 -272 0
65 -271 272 0
-65 271 272 0
-65 -271 -272 0
273 274 275 0
273 -274 -275 0
-273 274 -275 0
-273 -274 275 0
276 277 -278 0
276 -277 278 0
-276 277 278 0
-276 -277 -278 0
190 279 280 0
190 -279 -280 0
-190 279 -280 0
-190 -279 280 0
281 282 283 0
281 -282 -283 0
-281 282 -283 0
-281 -282 283 0
284 285 286 0
284 -285 -286 0
-284 285 -286 0
-284 -285 286 0
287 288 -289 0
287 -288 289 0
-287 288 289 0
-287 -288 -289 0
236 290 -291 0
236 -290 291 0
-236 290 291 0
-236 -290 -291 0
167 292 293 0
167 -292 -293 0
-167 292 -293 0
-167 -292 293 0
294 295 -296 0
294 -295 296 0
-294 295 296 0
-294 -295 -296 0
297 298 299 0
297 -298 -299 0
-297 298 -299 0
-297 -298 299 0
188 300 -301 0
188 -300 301 0
-188 300 301 0
-188 -300 -301 0
302 303 304 0
302 -303 -304 0
-302 303 -304 0
-302 -303 304 0
305 306 -307 0
305 -306 307 0
-305 306 307 0
-305 -306 -307 0
308 309 -310 0
308 -309 310 0
-308 309 310 0
-308 -309 -310 0
311 312 313 0
311 -312 -313 0
-311 312 -313 0
-311 -312 313 0
314 315 316 0
314 -315 -316 0
-314 315 -316 0
-314 -315 316 0
317 318 -319 0
317 -318 319 0
-317 318 319 0
-317 -318 -319 0
255 265 320 0
255 -265 -320 0
-255 265 -320 0
-255 -265 320 0
40 321 -322 0
40 -321 322 0
-40 321 322 0
-40 -321 -322 0
323 324 325 0
323 -324 -325 0
-323 324 -325 0
-323 -324 325 0
326 327 328 0
326 -327 -328 0
-326 327 -328 0
-326 -327 328 0
329 330 -331 0
329 -330 331 0
-329 330 331 0
-329 -330 -331 0
332 333 334 0
332 -333 -334 0
-332 333 -334 0
-332 -333 334 0
335 336 337 0
335 -336 -337 0
-335 336 -337 0
-335 -336 337 0
338 339 -340 0
338 -339 340 0
-338 339 340 0
-338 -339 -340 0
341 342 343 0
341 -342 -343 0
-341 342 -343 0
-341 -342 343 0
52 344 345 0
52 -344 -345 0
-52 344 -345 0
-52 -344 345 0
231 346 347 0
231 -346 -347 0
-231 346 -347 0
-231 -346 347 0
348 349 -350 0
348 -349 350 0
-348 349 350 0
-348 -349 -350 0
351 352 -353 0
351 -352 353 0
-351 352 353 0
-351 -352 -353 0
354 355 356 0
354 -355 -356 0
-354 355 -356 0
-354 -355 356 0
176 357 358 0
176 -357 -358 0
-176 357 -358 0
-176 -357 358 0
359 360 361 0
359 -360 -361 0
-359 360 -361 0
-359 -360 361 0
53 276 362 0
53 -276 -362 0
-53 276 -362 0
-53 -276 362 0
149 363 364 0
149 -363 -364 0
-149 363 -364 0
-149 -363 364 0
365 366 -367 0
365 -366 367 0
-365 366 367 0
-365 -366 -367 0
49 368 -369 0
49 -368 369 0
-49 368 369 0
-49 -368 -369 0
370 371 372 0
370 -371 -372 0
-370 371 -372 0
-370 -371 372 0
277 373 -374 0
277 -373 374 0
-277 373 374 0
-277 -373 -374 0
375 376 377 0
375 -376 -377 0
-375 376 -377 0
-375 -376 377 0
28 271 -378 0
28 -271 378 0
-28 271 378 0
-28 -271 -378 0
170 379 380 0
170 -379 -380 0
-170 379 -380 0
-170 -379 380 0
294 321 381 0
294 -321 -381 0
-294 321 -381 0
-294 -321 381 0
382 383 384 0
382 -383 -384 0
-382 383 -384 0
-382 -383 384 0
256 385 386 0
256 -385 -386 0
-256 385 -386 0
-256 -385 386 0
387 388 -389 0
387 -388 389 0
-387 388 389 0
-387 -388 -389 0
341 390 -391 0
341 -390 391 0
-341 390 391 0
-341 -390 -391 0
233 392 -393 0
233 -392 393 0
-233 392 393 0
-233 -392 -393 0
394 395 -396 0
394 -395 396 0
-394 395 396 0
-394 -395 -396 0
258 260 397 0
258 -260 -397 0
-258 260 -397 0
-258 -260 397 0
398 399 400 0
398 -399 -400 0
-398 399 -400 0
-398 -399 400 0
368 397 -401 0
368 -397 401 0
-368 397 401 0
-368 -397 -401 0
379 402 403 0
379 -402 -403 0
-379 402 -403 0
-379 -402 403 0
404 405 -406 0
404 -405 406 0
-404 405 406 0
-404 -405 -406 0
13 387 407 0
13 -387 -407 0
-13 387 -407 0
-13 -387 407 0
408 409 410 0
408 -409 -410 0
-408 409 -410 0
-408 -409 410 0
411 412 413 0
411 -412 -413 0
-411 412 -413 0
-411 -412 413 0
182 414 415 0
182 -414 -415 0
-182 414 -415 0
-182 -414 415 0
106 259 416 0
106 -259 -416 0
-106 259 -416 0
-106 -259 416 0
335 417 -418 0
335 -417 418 0
-335 417 418 0
-335 -417 -418 0
419 420 -421 0
419 -420 421 0
-419 420 421 0
-419 -420 -421 0
422 423 424 0
422 -423 -424 0
-422 423 -424 0
-422 -423 424 0
127 281 425 0
127 -281 -425 0
-127 281 -425 0
-127 -281 425 0
426 427 -428 0
426 -427 428 0
-426 427 428 0
-426 -427 -428 0
359 416 -429 0
359 -416 429 0
-359 416 429 0
-359 -416 -429 0
430 431 432 0
430 -431 -432 0
-430 431 -432 0
-430 -431 432 0
88 433 -434 0
88 -433 434 0
-88 433 434 0
-88 -433 -434 0
435 436 -437 0
435 -436 437 0
-435 436 437 0
-435 -436 -437 0
214 438 439 0
214 -438 -439 0
-214 438 -439 0
-214 -438 439 0
440 441 -442 0
440 -441 442 0
-440 441 442 0
-440 -441 -442 0
422 443 444 0
422 -443 -444 0
-422 443 -444 0
-422 -443 444 0
351 445 446 0
351 -445 -446 0
-351 445 -446 0
-351 -445 446 0
363 443 -447 0
363 -443 447 0
-363 443 447 0
-363 -443 -447 0
448 449 450 0
448 -449 -450 0
-448 449 -450 0
-448 -449 450 0
451 452 453 0
451 -452 -453 0
-451 452 -453 0
-451 -452 453 0
454 455 -456 0
454 -455 456 0
-454 455 456 0
-454 -455 -456 0
84 457 -458 0
84 -457 458 0
-84 457 458 0
-84 -457 -458 0
459 460 461 0
459 -460 -461 0
-459 460 -461 0
-459 -460 461 0
401 462 463 0
401 -462 -463 0
-401 462 -463 0
-401 -462 463 0
464 465 -466 0
464 -465 466 0
-464 465 466 0
-464 -465 -466 0
268 382 467 0
268 -382 -467 0
-268 382 -467 0
-268 -382 467 0
398 468 469 0
398 -468 -469 0
-398 468 -469 0
-398 -468 469 0
50 470 471 0
50 -470 -471 0
-50 470 -471 0
-50 -470 471 0
388 472 473 0
388 -472 -473 0
-388 472 -473 0
-388 -472 473 0
474 475 476 0
474 -475 -476 0
-474 475 -476 0
-474 -475 476 0
107 477 478 0
107 -477 -478 0
-107 477 -478 0
-107 -477 478 0
479 480 481 0
479 -480 -481 0
-479 480 -481 0
-479 -480 481 0
482 483 484 0
482 -483 -484 0
-482 483 -484 0
-482 -483 484 0
305 485 486 0
305 -485 -486 0
-305 485 -486 0
-305 -485 486 0
394 487 488 0
394 -487 -488 0
-394 487 -488 0
-394 -487 488 0
146 489 490 0
146 -489 -490 0
-146 489 -490 0
-146 -489 490 0
491 492 -493 0
491 -492 493 0
-491 492 493 0
-491 -492 -493 0
209 306 494 0
209 -306 -494 0
-209 306 -494 0
-209 -306 494 0
495 496 497 0
495 -496 -497 0
-495 496 -497 0
-495 -496 497 0
320 498 -499 0
320 -498 499 0
-320 498 499 0
-320 -498 -499 0
500 501 -502 0
500 -501 502 0
-500 501 502 0
-500 -501 -502 0
503 504 -505 0
503 -504 505 0
-503 504 505 0
-503 -504 -505 0
173 506 507 0
173 -506 -507 0
-173 506 -507 0
-173 -506 507 0
20 508 -509 0
20 -508 509 0
-20 508 509 0
-20 -508 -509 0
433 435 -510 0
433 -435 510 0
-433 435 510 0
-433 -435 -510 0
498 511 -512 0
498 -511 512 0
-498 511 512 0
-498 -511 -512 0
495 513 -514 0
495 -513 514 0
-495 513 514 0
-495 -513 -514 0
440 515 516 0
440 -515 -516 0
-440 515 -516 0
-440 -515 516 0
517 518 -519 0
517 -518 519 0
-517 518 519 0
-517 -518 -519 0
35 520 521 0
35 -520 -521 0
-35 520 -521 0
-35 -520 521 0
414 522 523 0
414 -522 -523 0
-414 522 -523 0
-414 -522 523 0
524 525 526 0
524 -525 -526 0
-524 525 -526 0
-524 -525 526 0
527 528 529 0
527 -528 -529 0
-527 528 -529 0
-527 -528 529 0
530 531 532 0
530 -531 -532 0
-530 531 -532 0
-530 -531 532 0
533 534 535 0
533 -534 -535 0
-533 534 -535 0
-533 -534 535 0
392 536 -537 0
392 -536 537 0
-392 536 537 0
-392 -536 -537 0
12 238 -538 0
12 -238 538 0
-12 238 538 0
-12 -238 -538 0
103 117 -539 0
103 -117 539 0
-103 117 539 0
-103 -117 -539 0
297 540 -541 0
297 -540 541 0
-297 540 541 0
-297 -540 -541 0
542 543 544 0
542 -543 -544 0
-542 543 -544 0
-542 -543 544 0
545 546 -547 0
545 -546 547 0
-545 546 547 0
-545 -546 -547 0
548 549 550 0
548 -549 -550 0
-548 549 -550 0
-548 -549 550 0
551 552 -553 0
551 -552 553 0
-551 552 553 0
-551 -552 -553 0
183 346 -554 0
183 -346 554 0
-183 346 554 0
-183 -346 -554 0
140 555 -556 0
140 -555 556 0
-140 555 556 0
-140 -555 -556 0
143 557 558 0
143 -557 -558 0
-143 557 -558 0
-143 -557 558 0
559 560 561 0
559 -560 -561 0
-559 560 -561 0
-559 -560 561 0
562 563 -564 0
562 -563 564 0
-562 563 564 0
-562 -563 -564 0
496 565 566 0
496 -565 -566 0
-496 565 -566 0
-496 -565 566 0
70 567 568 0
70 -567 -568 0
-70 567 -568 0
-70 -567 568 0
489 569 -570 0
489 -569 570 0
-489 569 570 0
-489 -569 -570 0
21 571 -572 0
21 -571 572 0
-21 571 572 0
-21 -571 -572 0
419 573 574 0
419 -573 -574 0
-419 573 -574 0
-419 -573 574 0
41 575 576 0
41 -575 -576 0
-41 575 -576 0
-41 -575 576 0
577 578 -579 0
577 -578 579 0
-577 578 579 0
-577 -578 -579 0
575 580 581 0
575 -580 -581 0
-575 580 -581 0
-575 -580 581 0
582 583 584 0
582 -583 -584 0
-582 583 -584 0
-582 -583 584 0
503 585 586 0
503 -585 -586 0
-503 585 -586 0
-503 -585 586 0
244 282 -587 0
244 -282 587 0
-244 282 587 0
-244 -282 -587 0
177 196 -588 0
177 -196 588 0
-177 196 588 0
-177 -196 -588 0
487 589 -590 0
487 -589 590 0
-487 589 590 0
-487 -589 -590 0
591 592 593 0
591 -592 -593 0
-591 592 -593 0
-591 -592 593 0
594 595 -596 0
594 -595 596 0
-594 595 596 0
-594 -595 -596 0
78 457 597 0
78 -457 -597 0
-78 457 -597 0
-78 -457 597 0
203 598 -599 0
203 -598 599 0
-203 598 599 0
-203 -598 -599 0
600 601 602 0
600 -601 -602 0
-600 601 -602 0
-600 -601 602 0
497 603 604 0
497 -603 -604 0
-497 603 -604 0
-497 -603 604 0
338 530 605 0
338 -530 -605 0
-338 530 -605 0
-338 -530 605 0
283 577 606 0
283 -577 -606 0
-283 577 -606 0
-283 -577 606 0
225 607 608 0
225 -607 -608 0
-225 607 -608 0
-225 -607 608 0
609 610 -611 0
609 -610 611 0
-609 610 611 0
-609 -610 -611 0
150 545 612 0
150 -545 -612 0
-150 545 -612 0
-150 -545 612 0
204 504 -613 0
204 -504 613 0
-204 504 613 0
-204 -504 -613 0
241 614 -615 0
241 -614 615 0
-241 614 615 0
-241 -614 -615 0
60 454 491 0
60 -454 -491 0
-60 454 -491 0
-60 -454 491 0
616 617 -618 0
616 -617 618 0
-616 617 618 0
-616 -617 -618 0
193 619 -620 0
193 -619 620 0
-193 619 620 0
-193 -619 -620 0
295 621 -622 0
295 -621 622 0
-295 621 622 0
-295 -621 -622 0
42 623 624 0
42 -623 -624 0
-42 623 -624 0
-42 -623 624 0
296 625 -626 0
296 -625 626 0
-296 625 626 0
-296 -625 -626 0
252 627 -628 0
252 -627 628 0
-252 627 628 0
-252 -627 -628 0
179 510 -573 0
179 -510 573 0
-179 510 573 0
-179 -510 -573 0
629 630 631 0
629 -630 -631 0
-629 630 -631 0
-629 -630 631 0
273 632 633 0
273 -632 -633 0
-273 632 -633 0
-273 -632 633 0
634 635 -636 0
634 -635 636 0
-634 635 636 0
-634 -635 -636 0
91 178 451 0
91 -178 -451 0
-91 178 -451 0
-91 -178 451 0
637 638 639 0
637 -638 -639 0
-637 638 -639 0
-637 -638 639 0
444 640 -641 0
444 -640 641 0
-444 640 641 0
-444 -640 -641 0
642 643 644 0
642 -643 -644 0
-642 643 -644 0
-642 -643 644 0
138 580 -645 0
138 -580 645 0
-138 580 645 0
-138 -580 -645 0
646 647 648 0
646 -647 -648 0
-646 647 -648 0
-646 -647 648 0
649 650 -651 0
649 -650 651 0
-649 650 651 0
-649 -650 -651 0
652 653 654 0
652 -653 -654 0
-652 653 -654 0
-652 -653 654 0
159 655 656 0
159 -655 -656 0
-159 655 -656 0
-159 -655 656 0
100 657 -658 0
100 -657 658 0
-100 657 658 0
-100 -657 -658 0
640 659 -660 0
640 -659 660 0
-640 659 660 0
-640 -659 -660 0
641 661 662 0
641 -661 -662 0
-641 661 -662 0
-641 -661 662 0
663 664 -665 0
663 -664 665 0
-663 664 665 0
-663 -664 -665 0
666 667 668 0
666 -667 -668 0
-666 667 -668 0
-666 -667 668 0
669 670 -671 0
669 -670 671 0
-669 670 671 0
-669 -670 -671 0
646 663 672 0
646 -663 -672 0
-646 663 -672 0
-646 -663 672 0
548 673 -674 0
548 -673 674 0
-548 673 674 0
-548 -673 -674 0
675 676 -677 0
675 -676 677 0
-675 676 677 0
-675 -676 -677 0
616 642 678 0
616 -642 -678 0
-616 642 -678 0
-616 -642 678 0
555 679 680 0
555 -679 -680 0
-555 679 -680 0
-555 -679 680 0
612 675 -681 0
612 -675 681 0
-612 675 681 0
-612 -675 -681 0
375 629 -682 0
375 -629 682 0
-375 629 682 0
-375 -629 -682 0
683 684 -685 0
683 -684 685 0
-683 684 685 0
-683 -684 -685 0
332 686 687 0
332 -686 -687 0
-332 686 -687 0
-332 -686 687 0
408 688 689 0
408 -688 -689 0
-408 688 -689 0
-408 -688 689 0
156 690 -691 0
156 -690 691 0
-156 690 691 0
-156 -690 -691 0
339 692 693 0
339 -692 -693 0
-339 692 -693 0
-339 -692 693 0
694 695 -696 0
694 -695 696 0
-694 695 696 0
-694 -695 -696 0
697 698 -699 0
697 -698 699 0
-697 698 699 0
-697 -698 -699 0
700 701 702 0
700 -701 -702 0
-700 701 -702 0
-700 -701 702 0
524 703 704 0
524 -703 -704 0
-524 703 -704 0
-524 -703 704 0
94 705 706 0
94 -705 -706 0
-94 705 -706 0
-94 -705 706 0
51 707 708 0
51 -707 -708 0
-51 707 -708 0
-51 -707 708 0
71 709 710 0
71 -709 -710 0
-71 709 -710 0
-71 -709 710 0
549 690 711 0
549 -690 -711 0
-549 690 -711 0
-549 -690 711 0
86 712 -713 0
86 -712 713 0
-86 712 713 0
-86 -712 -713 0
714 715 716 0
714 -715 -716 0
-714 715 -716 0
-714 -715 716 0
717 718 -719 0
717 -718 719 0
-717 718 719 0
-717 -718 -719 0
533 655 -720 0
533 -655 720 0
-533 655 720 0
-533 -655 -720 0
22 154 721 0
22 -154 -721 0
-22 154 -721 0
-22 -154 721 0
129 722 -723 0
129 -722 723 0
-129 722 723 0
-129 -722 -723 0
111 724 -725 0
111 -724 725 0
-111 724 725 0
-111 -724 -725 0
76 726 727 0
76 -726 -727 0
-76 726 -727 0
-76 -726 727 0
728 729 730 0
728 -729 -730 0
-728 729 -730 0
-728 -729 730 0
114 731 -732 0
114 -731 732 0
-114 731 732 0
-114 -731 -732 0
538 733 734 0
538 -733 -734 0
-538 733 -734 0
-538 -733 734 0
329 562 735 0
329 -562 -735 0
-329 562 -735 0
-329 -562 735 0
736 737 -738 0
736 -737 738 0
-736 737 738 0
-736 -737 -738 0
206 600 -739 0
206 -600 739 0
-206 600 739 0
-206 -600 -739 0
317 539 740 0
317 -539 -740 0
-317 539 -740 0
-317 -539 740 0
441 492 741 0
441 -492 -741 0
-441 492 -741 0
-441 -492 741 0
191 742 743 0
191 -742 -743 0
-191 742 -743 0
-191 -742 743 0
744 745 -746 0
744 -745 746 0
-744 745 746 0
-744 -745 -746 0
747 748 -749 0
747 -748 749 0
-747 748 749 0
-747 -748 -749 0
200 373 -750 0
200 -373 750 0
-200 373 750 0
-200 -373 -750 0
330 751 -752 0
330 -751 752 0
-330 751 752 0
-330 -751 -752 0
753 754 -755 0
753 -754 755 0
-753 754 755 0
-753 -754 -755 0
756 757 -758 0
756 -757 758 0
-756 757 758 0
-756 -757 -758 0
759 760 -761 0
759 -760 761 0
-759 760 761 0
-759 -760 -761 0
452 762 -763 0
452 -762 763 0
-452 762 763 0
-452 -762 -763 0
333 764 765 0
333 -764 -765 0
-333 764 -765 0
-333 -764 765 0
766 767 -768 0
766 -767 768 0
-766 767 768 0
-766 -767 -768 0
692 769 -770 0
692 -769 770 0
-692 769 770 0
-692 -769 -770 0
771 772 773 0
771 -772 -773 0
-771 772 -773 0
-771 -772 773 0
395 656 774 0
395 -656 -774 0
-395 656 -774 0
-395 -656 774 0
425 517 -661 0
425 -517 661 0
-425 517 661 0
-425 -517 -661 0
194 775 -776 0
194 -775 776 0
-194 775 776 0
-194 -775 -776 0
777 778 -779 0
777 -778 779 0
-777 778 779 0
-777 -778 -779 0
643 780 781 0
643 -780 -781 0
-643 780 -781 0
-643 -780 781 0
598 782 783 0
598 -782 -783 0
-598 782 -783 0
-598 -782 783 0
784 785 786 0
784 -785 -786 0
-784 785 -786 0
-784 -785 786 0
307 383 396 0
307 -383 -396 0
-307 383 -396 0
-307 -383 396 0
98 787 -788 0
98 -787 788 0
-98 787 788 0
-98 -787 -788 0
459 789 -790 0
459 -789 790 0
-459 789 790 0
-459 -789 -790 0
54 791 -792 0
54 -791 792 0
-54 791 792 0
-54 -791 -792 0
326 793 794 0
326 -793 -794 0
-326 793 -794 0
-326 -793 794 0
795 796 -797 0
795 -796 797 0
-795 796 797 0
-795 -796 -797 0
798 799 800 0
798 -799 -800 0
-798 799 -800 0
-798 -799 800 0
23 472 801 0
23 -472 -801 0
-23 472 -801 0
-23 -472 801 0
707 731 802 0
707 -731 -802 0
-707 731 -802 0
-707 -731 802 0
527 803 804 0
527 -803 -804 0
-527 803 -804 0
-527 -803 804 0
318 613 -805 0
318 -613 805 0
-318 613 805 0
-318 -613 -805 0
581 806 807 0
581 -806 -807 0
-581 806 -807 0
-581 -806 807 0
118 587 808 0
118 -587 -808 0
-118 587 -808 0
-118 -587 808 0
81 207 534 0
81 -207 -534 0
-81 207 -534 0
-81 -207 534 0
798 809 -810 0
798 -809 810 0
-798 809 810 0
-798 -809 -810 0
448 811 -812 0
448 -811 812 0
-448 811 812 0
-448 -811 -812 0
813 814 815 0
813 -814 -815 0
-813 814 -815 0
-813 -814 815 0
376 589 -816 0
376 -589 816 0
-376 589 816 0
-376 -589 -816 0
420 817 -818 0
420 -817 818 0
-420 817 818 0
-420 -817 -818 0
124 777 819 0
124 -777 -819 0
-124 777 -819 0
-124 -777 819 0
16 115 -820 0
16 -115 820 0
-16 115 820 0
-16 -115 -820 0
370 821 -822 0
370 -821 822 0
-370 821 822 0
-370 -821 -822 0
474 823 824 0
474 -823 -824 0
-474 823 -824 0
-474 -823 824 0
485 607 -756 0
485 -607 756 0
-485 607 756 0
-485 -607 -756 0
195 637 -825 0
195 -637 825 0
-195 637 825 0
-195 -637 -825 0
300 826 -827 0
300 -826 827 0
-300 826 827 0
-300 -826 -827 0
147 828 -829 0
147 -828 829 0
-147 828 829 0
-147 -828 -829 0
184 314 -830 0
184 -314 830 0
-184 314 830 0
-184 -314 -830 0
109 542 831 0
109 -542 -831 0
-109 542 -831 0
-109 -542 831 0
364 832 -833 0
364 -832 833 0
-364 832 833 0
-364 -832 -833 0
327 458 834 0
327 -458 -834 0
-327 458 -834 0
-327 -458 834 0
462 835 -836 0
462 -835 836 0
-462 835 836 0
-462 -835 -836 0
128 837 838 0
128 -837 -838 0
-128 837 -838 0
-128 -837 838 0
839 840 841 0
839 -840 -841 0
-839 840 -841 0
-839 -840 841 0
212 842 -843 0
212 -842 843 0
-212 842 843 0
-212 -842 -843 0
844 845 846 0
844 -845 -846 0
-844 845 -846 0
-844 -845 846 0
438 847 -848 0
438 -847 848 0
-438 847 848 0
-438 -847 -848 0
85 571 -673 0
85 -571 673 0
-85 571 673 0
-85 -571 -673 0
460 849 -850 0
460 -849 850 0
-460 849 850 0
-460 -849 -850 0
357 543 -851 0
357 -543 851 0
-357 543 851 0
-357 -543 -851 0
747 852 -853 0
747 -852 853 0
-747 852 853 0
-747 -852 -853 0
753 854 855 0
753 -854 -855 0
-753 854 -855 0
-753 -854 855 0
619 856 -857 0
619 -856 857 0
-619 856 857 0
-619 -856 -857 0
691 817 -858 0
691 -817 858 0
-691 817 858 0
-691 -817 -858 0
518 837 -859 0
518 -837 859 0
-518 837 859 0
-518 -837 -859 0
632 860 -861 0
632 -860 861 0
-632 860 861 0
-632 -860 -861 0
46 862 -863 0
46 -862 863 0
-46 862 863 0
-46 -862 -863 0
315 864 -865 0
315 -864 865 0
-315 864 865 0
-315 -864 -865 0
92 213 866 0
92 -213 -866 0
-92 213 -866 0
-92 -213 866 0
867 868 869 0
867 -868 -869 0
-867 868 -869 0
-867 -868 869 0
806 870 871 0
806 -870 -871 0
-806 870 -871 0
-806 -870 871 0
1 872 -873 0
1 -872 873 0
-1 872 873 0
-1 -872 -873 0
284 874 875 0
284 -874 -875 0
-284 874 -875 0
-284 -874 875 0
876 877 878 0
876 -877 -878 0
-876 877 -878 0
-876 -877 878 0
736 879 -880 0
736 -879 880 0
-736 879 880 0
-736 -879 -880 0
712 764 881 0
712 -764 -881 0
-712 764 -881 0
-712 -764 881 0
2 882 883 0
2 -882 -883 0
-2 882 -883 0
-2 -882 883 0
136 171 884 0
136 -171 -884 0
-136 171 -884 0
-136 -171 884 0
470 544 -735 0
470 -544 735 0
-470 544 735 0
-470 -544 -735 0
694 711 885 0
694 -711 -885 0
-694 711 -885 0
-694 -711 885 0
531 886 -887 0
531 -886 887 0
-531 886 887 0
-531 -886 -887 0
769 876 888 0
769 -876 -888 0
-769 876 -888 0
-769 -876 888 0
404 889 -890 0
404 -889 890 0
-404 889 890 0
-404 -889 -890 0
374 634 891 0
374 -634 -891 0
-374 634 -891 0
-374 -634 891 0
381 674 892 0
381 -674 -892 0
-381 674 -892 0
-381 -674 892 0
201 220 -893 0
201 -220 893 0
-201 220 893 0
-201 -220 -893 0
55 574 894 0
55 -574 -894 0
-55 574 -894 0
-55 -574 894 0
205 285 826 0
205 -285 -826 0
-205 285 -826 0
-205 -285 826 0
26 311 -895 0
26 -311 895 0
-26 311 895 0
-26 -311 -895 0
778 849 -896 0
778 -849 896 0
-778 849 896 0
-778 -849 -896 0
669 897 898 0
669 -897 -898 0
-669 897 -898 0
-669 -897 898 0
405 569 862 0
405 -569 -862 0
-405 569 -862 0
-405 -569 862 0
899 900 901 0
899 -900 -901 0
-899 900 -901 0
-899 -900 901 0
323 585 834 0
323 -585 -834 0
-323 585 -834 0
-323 -585 834 0
215 482 515 0
215 -482 -515 0
-215 482 -515 0
-215 -482 515 0
902 903 904 0
902 -903 -904 0
-902 903 -904 0
-902 -903 904 0
713 905 906 0
713 -905 -906 0
-713 905 -906 0
-713 -905 906 0
835 907 908 0
835 -907 -908 0
-835 907 -908 0
-835 -907 908 0
909 910 911 0
909 -910 -911 0
-909 910 -911 0
-909 -910 911 0
37 384 912 0
37 -384 -912 0
-37 384 -912 0
-37 -384 912 0
249 609 -913 0
249 -609 913 0
-249 609 913 0
-249 -609 -913 0
217 513 914 0
217 -513 -914 0
-217 513 -914 0
-217 -513 914 0
505 907 915 0
505 -907 -915 0
-505 907 -915 0
-505 -907 915 0
916 917 918 0
916 -917 -918 0
-916 917 -918 0
-916 -917 918 0
79 455 -919 0
79 -455 919 0
-79 455 919 0
-79 -455 -919 0
257 528 -920 0
257 -528 920 0
-257 528 920 0
-257 -528 -920 0
864 921 922 0
864 -921 -922 0
-864 921 -922 0
-864 -921 922 0
923 924 -925 0
923 -924 925 0
-923 924 925 0
-923 -924 -925 0
426 468 -926 0
426 -468 926 0
-426 468 926 0
-426 -468 -926 0
714 823 -927 0
714 -823 927 0
-714 823 927 0
-714 -823 -927 0
563 803 -928 0
563 -803 928 0
-563 803 928 0
-563 -803 -928 0
180 744 929 0
180 -744 -929 0
-180 744 -929 0
-180 -744 929 0
872 930 931 0
872 -930 -931 0
-872 930 -931 0
-872 -930 931 0
909 932 -933 0
909 -932 933 0
-909 932 933 0
-909 -932 -933 0
934 935 -936 0
934 -935 936 0
-934 935 936 0
-934 -935 -936 0
565 832 -937 0
565 -832 937 0
-565 832 937 0
-565 -832 -937 0
302 354 -938 0
302 -354 938 0
-302 354 938 0
-302 -354 -938 0
842 844 939 0
842 -844 -939 0
-842 844 -939 0
-842 -844 939 0
686 940 941 0
686 -940 -941 0
-686 940 -941 0
-686 -940 941 0
165 287 -942 0
165 -287 942 0
-165 287 942 0
-165 -287 -942 0
464 943 944 0
464 -943 -944 0
-464 943 -944 0
-464 -943 944 0
500 945 946 0
500 -945 -946 0
-500 945 -946 0
-500 -945 946 0
61 947 -948 0
61 -947 948 0
-61 947 948 0
-61 -947 -948 0
949 950 -951 0
949 -950 951 0
-949 950 951 0
-949 -950 -951 0
104 708 -896 0
104 -708 896 0
-104 708 896 0
-104 -708 -896 0
551 789 -952 0
551 -789 952 0
-551 789 952 0
-551 -789 -952 0
263 953 954 0
263 -953 -954 0
-263 953 -954 0
-263 -953 954 0
445 559 -955 0
445 -559 955 0
-445 559 955 0
-445 -559 -955 0
290 956 957 0
290 -956 -957 0
-290 956 -957 0
-290 -956 957 0
910 958 959 0
910 -958 -959 0
-910 958 -959 0
-910 -958 959 0
560 960 961 0
560 -960 -961 0
-560 960 -961 0
-560 -960 961 0
962 963 -964 0
962 -963 964 0
-962 963 964 0
-962 -963 -964 0
475 594 965 0
475 -594 -965 0
-475 594 -965 0
-475 -594 965 0
902 966 -967 0
902 -966 967 0
-902 966 967 0
-902 -966 -967 0
192 232 625 0
192 -232 -625 0
-192 232 -625 0
-192 -232 625 0
525 536 -638 0
525 -536 638 0
-525 536 638 0
-525 -536 -638 0
471 968 969 0
471 -968 -969 0
-471 968 -969 0
-471 -968 969 0
905 970 -971 0
905 -970 971 0
-905 970 971 0
-905 -970 -971 0
43 818 972 0
43 -818 -972 0
-43 818 -972 0
-43 -818 972 0
550 697 973 0
550 -697 -973 0
-550 697 -973 0
-550 -697 973 0
116 726 -974 0
116 -726 974 0
-116 726 974 0
-116 -726 -974 0
659 975 -976 0
659 -975 976 0
-659 975 976 0
-659 -975 -976 0
722 787 -977 0
722 -787 977 0
-722 787 977 0
-722 -787 -977 0
168 886 -888 0
168 -886 888 0
-168 886 888 0
-168 -886 -888 0
29 839 -877 0
29 -839 877 0
-29 839 877 0
-29 -839 -877 0
7 978 -979 0
7 -978 979 0
-7 978 979 0
-7 -978 -979 0
157 411 -882 0
157 -411 882 0
-157 411 882 0
-157 -411 -882 0
623 759 980 0
623 -759 -980 0
-623 759 -980 0
-623 -759 980 0
754 923 -981 0
754 -923 981 0
-754 923 981 0
-754 -923 -981 0
222 982 -983 0
222 -982 983 0
-222 982 983 0
-222 -982 -983 0
279 298 652 0
279 -298 -652 0
-279 298 -652 0
-279 -298 652 0
308 742 -984 0
308 -742 984 0
-308 742 984 0
-308 -742 -984 0
399 745 -985 0
399 -745 985 0
-399 745 985 0
-399 -745 -985 0
556 986 -987 0
556 -986 987 0
-556 986 987 0
-556 -986 -987 0
447 988 -989 0
447 -988 989 0
-447 988 989 0
-447 -988 -989 0
795 919 -990 0
795 -919 990 0
-795 919 990 0
-795 -919 -990 0
80 469 991 0
80 -469 -991 0
-80 469 -991 0
-80 -469 991 0
955 992 -993 0
955 -992 993 0
-955 992 993 0
-955 -992 -993 0
972 994 995 0
972 -994 -995 0
-972 994 -995 0
-972 -994 995 0
793 811 996 0
793 -811 -996 0
-793 811 -996 0
-793 -811 996 0
821 997 998 0
821 -997 -998 0
-821 997 -998 0
-821 -997 998 0
999 1000 -1001 0
999 -1000 1001 0
-999 1000 1001 0
-999 -1000 -1001 0
483 1002 -1003 0
483 -1002 1003 0
-483 1002 1003 0
-483 -1002 -1003 0
751 1004 1005 0
751 -1004 -1005 0
-751 1004 -1005 0
-751 -1004 1005 0
499 840 1006 0
499 -840 -1006 0
-499 840 -1006 0
-499 -840 1006 0
331 1007 1008 0
331 -1007 -1008 0
-331 1007 -1008 0
-331 -1007 1008 0
162 870 1009 0
162 -870 -1009 0
-162 870 -1009 0
-162 -870 1009 0
511 799 -911 0
511 -799 911 0
-511 799 911 0
-511 -799 -911 0
479 994 -1010 0
479 -994 1010 0
-479 994 1010 0
-479 -994 -1010 0
851 915 986 0
851 -915 -986 0
-851 915 -986 0
-851 -915 986 0
617 932 -1007 0
617 -932 1007 0
-617 932 1007 0
-617 -932 -1007 0
148 319 -402 0
148 -319 402 0
-148 319 402 0
-148 -319 -402 0
4 912 -1011 0
4 -912 1011 0
-4 912 1011 0
-4 -912 -1011 0
47 762 1012 0
47 -762 -1012 0
-47 762 -1012 0
-47 -762 1012 0
930 1013 -1014 0
930 -1013 1014 0
-930 1013 1014 0
-930 -1013 -1014 0
280 421 1015 0
280 -421 -1015 0
-280 421 -1015 0
-280 -421 1015 0
239 1016 1017 0
239 -1016 -1017 0
-239 1016 -1017 0
-239 -1016 1017 0
24 348 -804 0
24 -348 804 0
-24 348 804 0
-24 -348 -804 0
158 724 -1018 0
158 -724 1018 0
-158 724 1018 0
-158 -724 -1018 0
867 981 1019 0
867 -981 -1019 0
-867 981 -1019 0
-867 -981 1019 0
653 1010 -1020 0
653 -1010 1020 0
-653 1010 1020 0
-653 -1010 -1020 0
68 822 1021 0
68 -822 -1021 0
-68 822 -1021 0
-68 -822 1021 0
120 1021 -1022 0
120 -1021 1022 0
-120 1021 1022 0
-120 -1021 -1022 0
160 253 1023 0
160 -253 -1023 0
-160 253 -1023 0
-160 -253 1023 0
683 1024 -1025 0
683 -1024 1025 0
-683 1024 1025 0
-683 -1024 -1025 0
269 595 1026 0
269 -595 -1026 0
-269 595 -1026 0
-269 -595 1026 0
174 784 -1027 0
174 -784 1027 0
-174 784 1027 0
-174 -784 -1027 0
427 572 801 0
427 -572 -801 0
-427 572 -801 0
-427 -572 801 0
836 1028 -1029 0
836 -1028 1029 0
-836 1028 1029 0
-836 -1028 -1029 0
132 1030 1031 0
132 -1030 -1031 0
-132 1030 -1031 0
-132 -1030 1031 0
1032 1033 1034 0
1032 -1033 -1034 0
-1032 1033 -1034 0
-1032 -1033 1034 0
344 465 476 0
344 -465 -476 0
-344 465 -476 0
-344 -465 476 0
242 924 -1035 0
242 -924 1035 0
-242 924 1035 0
-242 -924 -1035 0
488 603 1036 0
488 -603 -1036 0
-488 603 -1036 0
-488 -603 1036 0
532 1037 -1038 0
532 -1037 1038 0
-532 1037 1038 0
-532 -1037 -1038 0
121 682 -1039 0
121 -682 1039 0
-121 682 1039 0
-121 -682 -1039 0
1040 1041 -1042 0
1040 -1041 1042 0
-1040 1041 1042 0
-1040 -1041 -1042 0
125 352 -1043 0
125 -352 1043 0
-125 352 1043 0
-125 -352 -1043 0
274 812 -1044 0
274 -812 1044 0
-274 812 1044 0
-274 -812 -1044 0
27 412 -591 0
27 -412 591 0
-27 412 591 0
-27 -412 -591 0
925 1045 -1046 0
925 -1045 1046 0
-925 1045 1046 0
-925 -1045 -1046 0
606 1047 1048 0
606 -1047 -1048 0
-606 1047 -1048 0
-606 -1047 1048 0
436 461 552 0
436 -461 -552 0
-436 461 -552 0
-436 -461 552 0
349 903 -1049 0
349 -903 1049 0
-349 903 1049 0
-349 -903 -1049 0
592 1050 1051 0
592 -1050 -1051 0
-592 1050 -1051 0
-592 -1050 1051 0
377 501 526 0
377 -501 -526 0
-377 501 -526 0
-377 -501 526 0
266 516 -894 0
266 -516 894 0
-266 516 894 0
-266 -516 -894 0
782 1052 -1053 0
782 -1052 1053 0
-782 1052 1053 0
-782 -1052 -1053 0
371 1054 1055 0
371 -1054 -1055 0
-371 1054 -1055 0
-371 -1054 1055 0
110 1056 -1057 0
110 -1056 1057 0
-110 1056 1057 0
-110 -1056 -1057 0
1058 1059 1060 0
1058 -1059 -1060 0
-1058 1059 -1060 0
-1058 -1059 1060 0
1061 1062 -1063 0
1061 -1062 1063 0
-1061 1062 1063 0
-1061 -1062 -1063 0
413 723 949 0
413 -723 -949 0
-413 723 -949 0
-413 -723 949 0
1064 1065 -1066 0
1064 -1065 1066 0
-1064 1065 1066 0
-1064 -1065 -1066 0
783 1067 -1068 0
783 -1067 1068 0
-783 1067 1068 0
-783 -1067 -1068 0
939 1069 -1070 0
939 -1069 1070 0
-939 1069 1070 0
-939 -1069 -1070 0
403 1071 1072 0
403 -1071 -1072 0
-403 1071 -1072 0
-403 -1071 1072 0
67 733 -1028 0
67 -733 1028 0
-67 733 1028 0
-67 -733 -1028 0
58 990 -1073 0
58 -990 1073 0
-58 990 1073 0
-58 -990 -1073 0
757 1074 1075 0
757 -1074 -1075 0
-757 1074 -1075 0
-757 -1074 1075 0
1039 1076 -1077 0
1039 -1076 1077 0
-1039 1076 1077 0
-1039 -1076 -1077 0
466 966 -1036 0
466 -966 1036 0
-466 966 1036 0
-466 -966 -1036 0
614 1078 1079 0
614 -1078 -1079 0
-614 1078 -1079 0
-614 -1078 1079 0
916 1040 1080 0
916 -1040 -1080 0
-916 1040 -1080 0
-916 -1040 1080 0
860 1081 -1082 0
860 -1081 1082 0
-860 1081 1082 0
-860 -1081 -1082 0
991 1083 1084 0
991 -1083 -1084 0
-991 1083 -1084 0
-991 -1083 1084 0
245 570 1050 0
245 -570 -1050 0
-245 570 -1050 0
-245 -570 1050 0
17 780 1058 0
17 -780 -1058 0
-17 780 -1058 0
-17 -780 1058 0
755 760 -920 0
755 -760 920 0
-755 760 920 0
-755 -760 -920 0
112 1085 -1086 0
112 -1085 1086 0
-112 1085 1086 0
-112 -1085 -1086 0
254 895 1087 0
254 -895 -1087 0
-254 895 -1087 0
-254 -895 1087 0
996 1052 1088 0
996 -1052 -1088 0
-996 1052 -1088 0
-996 -1052 1088 0
185 717 -1089 0
185 -717 1089 0
-185 717 1089 0
-185 -717 -1089 0
771 992 -1090 0
771 -992 1090 0
-771 992 1090 0
-771 -992 -1090 0
218 378 1091 0
218 -378 -1091 0
-218 378 -1091 0
-218 -378 1091 0
578 807 813 0
578 -807 -813 0
-578 807 -813 0
-578 -807 813 0
62 272 1081 0
62 -272 -1081 0
-62 272 -1081 0
-62 -272 1081 0
355 899 943 0
355 -899 -943 0
-355 899 -943 0
-355 -899 943 0
522 1027 -1092 0
522 -1027 1092 0
-522 1027 1092 0
-522 -1027 -1092 0
1078 1093 1094 0
1078 -1093 -1094 0
-1078 1093 -1094 0
-1078 -1093 1094 0
593 630 709 0
593 -630 -709 0
-593 630 -709 0
-593 -630 709 0
113 678 -858 0
113 -678 858 0
-113 678 858 0
-113 -678 -858 0
1006 1071 1095 0
1006 -1071 -1095 0
-1006 1071 -1095 0
-1006 -1071 1095 0
275 1096 -1097 0
275 -1096 1097 0
-275 1096 1097 0
-275 -1096 -1097 0
845 1098 -1099 0
845 -1098 1099 0
-845 1098 1099 0
-845 -1098 -1099 0
781 917 1093 0
781 -917 -1093 0
-781 917 -1093 0
-781 -917 1093 0
3 657 1100 0
3 -657 -1100 0
-3 657 -1100 0
-3 -657 1100 0
658 999 1101 0
658 -999 -1101 0
-658 999 -1101 0
-658 -999 1101 0
186 564 1102 0
186 -564 -1102 0
-186 564 -1102 0
-186 -564 1102 0
473 703 -741 0
473 -703 741 0
-473 703 741 0
-473 -703 -741 0
151 1103 1104 0
151 -1103 -1104 0
-151 1103 -1104 0
-151 -1103 1104 0
358 814 952 0
358 -814 -952 0
-358 814 -952 0
-358 -814 952 0
679 1015 -1105 0
679 -1015 1105 0
-679 1015 1105 0
-679 -1015 -1105 0
537 553 1018 0
537 -553 -1018 0
-537 553 -1018 0
-537 -553 1018 0
604 737 1054 0
604 -737 -1054 0
-604 737 -1054 0
-604 -737 1054 0
830 893 -1106 0
830 -893 1106 0
-830 893 1106 0
-830 -893 -1106 0
234 303 -693 0
234 -303 693 0
-234 303 693 0
-234 -303 -693 0
1056 1069 -1107 0
1056 -1069 1107 0
-1056 1069 1107 0
-1056 -1069 -1107 0
449 704 -1108 0
449 -704 1108 0
-449 704 1108 0
-449 -704 -1108 0
415 705 -854 0
415 -705 854 0
-415 705 854 0
-415 -705 -854 0
247 291 -1109 0
247 -291 1109 0
-247 291 1109 0
-247 -291 -1109 0
430 1110 1111 0
430 -1110 -1111 0
-430 1110 -1111 0
-430 -1110 1111 0
362 546 -1112 0
362 -546 1112 0
-362 546 1112 0
-362 -546 -1112 0
38 688 -734 0
38 -688 734 0
-38 688 734 0
-38 -688 -734 0
897 1073 -1113 0
897 -1073 1113 0
-897 1073 1113 0
-897 -1073 -1113 0
1083 1114 -1115 0
1083 -1114 1115 0
-1083 1114 1115 0
-1083 -1114 -1115 0
597 1116 1117 0
597 -1116 -1117 0
-597 1116 -1117 0
-597 -1116 1117 0
508 710 1118 0
508 -710 -1118 0
-508 710 -1118 0
-508 -710 1118 0
216 866 -1119 0
216 -866 1119 0
-216 866 1119 0
-216 -866 -1119 0
1098 1114 1120 0
1098 -1114 -1120 0
-1098 1114 -1120 0
-1098 -1114 1120 0
788 1121 1122 0
788 -1121 -1122 0
-788 1121 -1122 0
-788 -1121 1122 0
662 1118 1123 0
662 -1118 -1123 0
-662 1118 -1123 0
-662 -1118 1123 0
44 400 698 0
44 -400 -698 0
-44 400 -698 0
-44 -400 698 0
633 1124 1125 0
633 -1124 -1125 0
-633 1124 -1125 0
-633 -1124 1125 0
89 409 -680 0
89 -409 680 0
-89 409 680 0
-89 -409 -680 0
1100 1126 1127 0
1100 -1126 -1127 0
-1100 1126 -1127 0
-1100 -1126 1127 0
328 850 934 0
328 -850 -934 0
-328 850 -934 0
-328 -850 934 0
684 997 1024 0
684 -997 -1024 0
-684 997 -1024 0
-684 -997 1024 0
342 450 1128 0
342 -450 -1128 0
-342 450 -1128 0
-342 -450 1128 0
155 1085 -1129 0
155 -1085 1129 0
-155 1085 1129 0
-155 -1085 -1129 0
309 1090 -1099 0
309 -1090 1099 0
-309 1090 1099 0
-309 -1090 -1099 0
5 582 -728 0
5 -582 728 0
-5 582 728 0
-5 -582 -728 0
90 833 1000 0
90 -833 -1000 0
-90 833 -1000 0
-90 -833 1000 0
299 938 -1130 0
299 -938 1130 0
-299 938 1130 0
-299 -938 -1130 0
752 988 1131 0
752 -988 -1131 0
-752 988 -1131 0
-752 -988 1131 0
18 1132 -1133 0
18 -1132 1133 0
-18 1132 1133 0
-18 -1132 -1133 0
223 547 -820 0
223 -547 820 0
-223 547 820 0
-223 -547 -820 0
748 852 1134 0
748 -852 -1134 0
-748 852 -1134 0
-748 -852 1134 0
431 700 1135 0
431 -700 -1135 0
-431 700 -1135 0
-431 -700 1135 0
599 718 962 0
599 -718 -962 0
-599 718 -962 0
-599 -718 962 0
467 1076 -1123 0
467 -1076 1123 0
-467 1076 1123 0
-467 -1076 -1123 0
463 958 -1136 0
463 -958 1136 0
-463 958 1136 0
-463 -958 -1136 0
761 906 1064 0
761 -906 -1064 0
-761 906 -1064 0
-761 -906 1064 0
579 729 740 0
579 -729 -740 0
-579 729 -740 0
-579 -729 740 0
1041 1047 1116 0
1041 -1047 -1116 0
-1041 1047 -1116 0
-1041 -1047 1116 0
963 977 1137 0
963 -977 -1137 0
-963 977 -1137 0
-963 -977 1137 0
385 699 1138 0
385 -699 -1138 0
-385 699 -1138 0
-385 -699 1138 0
908 1086 -1139 0
908 -1086 1139 0
-908 1086 1139 0
-908 -1086 -1139 0
738 1079 -1110 0
738 -1079 1110 0
-738 1079 1110 0
-738 -1079 -1110 0
535 739 1140 0
535 -739 -1140 0
-535 739 -1140 0
-535 -739 1140 0
72 720 -921 0
72 -720 921 0
-72 720 921 0
-72 -720 -921 0
626 1023 1141 0
626 -1023 -1141 0
-626 1023 -1141 0
-626 -1023 1141 0
639 1142 -1143 0
639 -1142 1143 0
-639 1142 1143 0
-639 -1142 -1143 0
635 750 1138 0
635 -750 -1138 0
-635 750 -1138 0
-635 -750 1138 0
493 766 -785 0
493 -766 785 0
-493 766 785 0
-493 -766 -785 0
767 879 -1019 0
767 -879 1019 0
-767 879 1019 0
-767 -879 -1019 0
172 772 1142 0
172 -772 -1142 0
-172 772 -1142 0
-172 -772 1142 0
588 1131 -1144 0
588 -1131 1144 0
-588 1131 1144 0
-588 -1131 -1144 0
666 805 -1145 0
666 -805 1145 0
-666 805 1145 0
-666 -805 -1145 0
1051 1059 -1145 0
1051 -1059 1145 0
-1051 1059 1145 0
-1051 -1059 -1145 0
248 727 1060 0
248 -727 -1060 0
-248 727 -1060 0
-248 -727 1060 0
816 1004 1146 0
816 -1004 -1146 0
-816 1004 -1146 0
-816 -1004 1146 0
324 874 -1147 0
324 -874 1147 0
-324 874 1147 0
-324 -874 -1147 0
982 1120 -1121 0
982 -1120 1121 0
-982 1120 1121 0
-982 -1120 -1121 0
316 360 -1067 0
316 -360 1067 0
-316 360 1067 0
-316 -360 -1067 0
434 477 561 0
434 -477 -561 0
-434 477 -561 0
-434 -477 561 0
181 1148 -1149 0
181 -1148 1149 0
-181 1148 1149 0
-181 -1148 -1149 0
484 868 -1072 0
484 -868 1072 0
-484 868 1072 0
-484 -868 -1072 0
913 1037 -1150 0
913 -1037 1150 0
-913 1037 1150 0
-913 -1037 -1150 0
304 567 -1111 0
304 -567 1111 0
-304 567 1111 0
-304 -567 -1111 0
312 439 1002 0
312 -439 -1002 0
-312 439 -1002 0
-312 -439 1002 0
288 540 1151 0
288 -540 -1151 0
-288 540 -1151 0
-288 -540 1151 0
105 519 -773 0
105 -519 773 0
-105 519 773 0
-105 -519 -773 0
480 576 -1152 0
480 -576 1152 0
-480 576 1152 0
-480 -576 -1152 0
775 1113 -1124 0
775 -1113 1124 0
-775 1113 1124 0
-775 -1113 -1124 0
390 885 -1153 0
390 -885 1153 0
-390 885 1153 0
-390 -885 -1153 0
141 380 953 0
141 -380 -953 0
-141 380 -953 0
-141 -380 953 0
446 667 -1025 0
446 -667 1025 0
-446 667 1025 0
-446 -667 -1025 0
620 1144 1154 0
620 -1144 -1154 0
-620 1144 -1154 0
-620 -1144 1154 0
442 1022 -1094 0
442 -1022 1094 0
-442 1022 1094 0
-442 -1022 -1094 0
685 1155 -1156 0
685 -1155 1156 0
-685 1155 1156 0
-685 -1155 -1156 0
228 610 -1126 0
228 -610 1126 0
-228 610 1126 0
-228 -610 -1126 0
95 343 541 0
95 -343 -541 0
-95 343 -541 0
-95 -343 541 0
166 391 -1157 0
166 -391 1157 0
-166 391 1157 0
-166 -391 -1157 0
175 189 1158 0
175 -189 -1158 0
-175 189 -1158 0
-175 -189 1158 0
1029 1032 -1159 0
1029 -1032 1159 0
-1029 1032 1159 0
-1029 -1032 -1159 0
926 1160 1161 0
926 -1160 -1161 0
-926 1160 -1161 0
-926 -1160 1161 0
900 968 1162 0
900 -968 -1162 0
-900 968 -1162 0
-900 -968 1162 0
796 956 -1139 0
796 -956 1139 0
-796 956 1139 0
-796 -956 -1139 0
365 393 -615 0
365 -393 615 0
-365 393 615 0
-365 -393 -615 0
993 1038 1136 0
993 -1038 -1136 0
-993 1038 -1136 0
-993 -1038 1136 0
250 1127 -1163 0
250 -1127 1163 0
-250 1127 1163 0
-250 -1127 -1163 0
889 1141 -1164 0
889 -1141 1164 0
-889 1141 1164 0
-889 -1141 -1164 0
313 945 1092 0
313 -945 -1092 0
-313 945 -1092 0
-313 -945 1092 0
502 928 1165 0
502 -928 -1165 0
-502 928 -1165 0
-502 -928 1165 0
892 1166 -1167 0
892 -1166 1167 0
-892 1166 1167 0
-892 -1166 -1167 0
583 645 -1155 0
583 -645 1155 0
-583 645 1155 0
-583 -645 -1155 0
406 935 -1009 0
406 -935 1009 0
-406 935 1009 0
-406 -935 -1009 0
310 486 841 0
310 -486 -841 0
-310 486 -841 0
-310 -486 841 0
96 494 904 0
96 -494 -904 0
-96 494 -904 0
-96 -494 904 0
701 1115 -1168 0
701 -1115 1168 0
-701 1115 1168 0
-701 -1115 -1168 0
695 1003 -1169 0
695 -1003 1169 0
-695 1003 1169 0
-695 -1003 -1169 0
824 828 -1170 0
824 -828 1170 0
-824 828 1170 0
-824 -828 -1170 0
69 950 1171 0
69 -950 -1171 0
-69 950 -1171 0
-69 -950 1171 0
825 1045 1172 0
825 -1045 -1172 0
-825 1045 -1172 0
-825 -1045 1172 0
389 974 1173 0
389 -974 -1173 0
-389 974 -1173 0
-389 -974 1173 0
855 998 -1148 0
855 -998 1148 0
-855 998 1148 0
-855 -998 -1148 0
345 940 -1137 0
345 -940 1137 0
-345 940 1137 0
-345 -940 -1137 0
554 970 -1174 0
554 -970 1174 0
-554 970 1174 0
-554 -970 -1174 0
56 859 -1175 0
56 -859 1175 0
-56 859 1175 0
-56 -859 -1175 0
187 264 1107 0
187 -264 -1107 0
-187 264 -1107 0
-187 -264 1107 0
261 884 -1176 0
261 -884 1176 0
-261 884 1176 0
-261 -884 -1176 0
715 914 -1102 0
715 -914 1102 0
-715 914 1102 0
-715 -914 -1102 0
557 696 -809 0
557 -696 809 0
-557 696 809 0
-557 -696 -809 0
417 624 -880 0
417 -624 880 0
-417 624 880 0
-417 -624 -880 0
596 649 -1164 0
596 -649 1164 0
-596 649 1164 0
-596 -649 -1164 0
819 947 1043 0
819 -947 -1043 0
-819 947 -1043 0
-819 -947 1043 0
989 1095 -1151 0
989 -1095 1151 0
-989 1095 1151 0
-989 -1095 -1151 0
983 1091 -1149 0
983 -1091 1149 0
-983 1091 1149 0
-983 -1091 -1149 0
336 802 1048 0
336 -802 -1048 0
-336 802 -1048 0
-336 -802 1048 0
226 971 -1177 0
226 -971 1177 0
-226 971 1177 0
-226 -971 -1177 0
14 198 1125 0
14 -198 -1125 0
-14 198 -1125 0
-14 -198 1125 0
144 964 969 0
144 -964 -969 0
-144 964 -969 0
-144 -964 969 0
856 1044 1077 0
856 -1044 -1077 0
-856 1044 -1077 0
-856 -1044 1077 0
229 1013 1175 0
229 -1013 -1175 0
-229 1013 -1175 0
-229 -1013 1175 0
356 794 -1033 0
356 -794 1033 0
-356 794 1033 0
-356 -794 -1033 0
520 1030 1178 0
520 -1030 -1178 0
-520 1030 -1178 0
-520 -1030 1178 0
372 957 -1103 0
372 -957 1103 0
-372 957 1103 0
-372 -957 -1103 0
325 1129 -1166 0
325 -1129 1166 0
-325 1129 1166 0
-325 -1129 -1166 0
122 243 808 0
122 -243 -808 0
-122 243 -808 0
-122 -243 808 0
161 631 931 0
161 -631 -931 0
-161 631 -931 0
-161 -631 931 0
292 340 1074 0
292 -340 -1074 0
-292 340 -1074 0
-292 -340 1074 0
93 453 -1031 0
93 -453 1031 0
-93 453 1031 0
-93 -453 -1031 0
514 901 -984 0
514 -901 984 0
-514 901 984 0
-514 -901 -984 0
687 929 -1179 0
687 -929 1179 0
-687 929 1179 0
-687 -929 -1179 0
145 654 948 0
145 -654 -948 0
-145 654 -948 0
-145 -654 948 0
48 199 237 0
48 -199 -237 0
-48 199 -237 0
-48 -199 237 0
490 670 -763 0
490 -670 763 0
-490 670 763 0
-490 -670 -763 0
130 797 1172 0
130 -797 -1172 0
-130 797 -1172 0
-130 -797 1172 0
936 1158 -1180 0
936 -1158 1180 0
-936 1158 1180 0
-936 -1158 -1180 0
77 721 960 0
77 -721 -960 0
-77 721 -960 0
-77 -721 960 0
169 1046 -1181 0
169 -1046 1181 0
-169 1046 1181 0
-169 -1046 -1181 0
627 944 -1035 0
627 -944 1035 0
-627 944 1035 0
-627 -944 -1035 0
369 978 -1171 0
369 -978 1171 0
-369 978 1171 0
-369 -978 -1171 0
152 386 843 0
152 -386 -843 0
-152 386 -843 0
-152 -386 843 0
246 1008 -1057 0
246 -1008 1057 0
-246 1008 1057 0
-246 -1008 -1057 0
601 702 -1088 0
601 -702 1088 0
-601 702 1088 0
-601 -702 -1088 0
725 973 1182 0
725 -973 -1182 0
-725 973 -1182 0
-725 -973 1182 0
15 99 1183 0
15 -99 -1183 0
-15 99 -1183 0
-15 -99 1183 0
163 1070 -1184 0
163 -1070 1184 0
-163 1070 1184 0
-163 -1070 -1184 0
197 863 922 0
197 -863 -922 0
-197 863 -922 0
-197 -863 922 0
322 611 -1184 0
322 -611 1184 0
-322 611 1184 0
-322 -611 -1184 0
608 791 -1185 0
608 -791 1185 0
-608 791 1185 0
-608 -791 -1185 0
221 967 -1183 0
221 -967 1183 0
-221 967 1183 0
-221 -967 -1183 0
224 672 -800 0
224 -672 800 0
-224 672 800 0
-224 -672 -800 0
650 1132 1169 0
650 -1132 -1169 0
-650 1132 -1169 0
-650 -1132 1169 0
529 746 -1061 0
529 -746 1061 0
-529 746 1061 0
-529 -746 -1061 0
210 267 -985 0
210 -267 985 0
-210 267 985 0
-210 -267 -985 0
602 660 -1160 0
602 -660 1160 0
-602 660 1160 0
-602 -660 -1160 0
45 1062 -1075 0
45 -1062 1075 0
-45 1062 1075 0
-45 -1062 -1075 0
119 142 1186 0
119 -142 -1186 0
-119 142 -1186 0
-119 -142 1186 0
749 861 1187 0
749 -861 -1187 0
-749 861 -1187 0
-749 -861 1187 0
1130 1176 -1188 0
1130 -1176 1188 0
-1130 1176 1188 0
-1130 -1176 -1188 0
334 618 -846 0
334 -618 846 0
-334 618 846 0
-334 -618 -846 0
512 1182 1189 0
512 -1182 -1189 0
-512 1182 -1189 0
-512 -1182 1189 0
1065 1152 1165 0
1065 -1152 -1165 0
-1065 1152 -1165 0
-1065 -1152 1165 0
890 954 959 0
890 -954 -959 0
-890 954 -959 0
-890 -954 959 0
668 1105 1190 0
668 -1105 -1190 0
-668 1105 -1190 0
-668 -1105 1190 0
133 1014 -1191 0
133 -1014 1191 0
-133 1014 1191 0
-133 -1014 -1191 0
227 887 -1096 0
227 -887 1096 0
-227 887 1096 0
-227 -887 -1096 0
605 1177 1191 0
605 -1177 -1191 0
-605 1177 -1191 0
-605 -1177 1191 0
410 584 -586 0
410 -584 586 0
-410 584 586 0
-410 -584 -586 0
219 1089 -1192 0
219 -1089 1192 0
-219 1089 1192 0
-219 -1089 -1192 0
881 1161 -1163 0
881 -1161 1163 0
-881 1161 1163 0
-881 -1161 -1163 0
8 1001 -1135 0
8 -1001 1135 0
-8 1001 1135 0
-8 -1001 -1135 0
1108 1162 1186 0
1108 -1162 -1186 0
-1108 1162 -1186 0
-1108 -1162 1186 0
202 235 -979 0
202 -235 979 0
-202 235 979 0
-202 -235 -979 0
933 1193 -1194 0
933 -1193 1194 0
-933 1193 1194 0
-933 -1193 -1194 0
6 765 1195 0
6 -765 -1195 0
-6 765 -1195 0
-6 -765 1195 0
301 869 -1042 0
301 -869 1042 0
-301 869 1042 0
-301 -869 -1042 0
289 506 -1143 0
289 -506 1143 0
-289 506 1143 0
-289 -506 -1143 0
644 647 1134 0
644 -647 -1134 0
-644 647 -1134 0
-644 -647 1134 0
829 1104 -1187 0
829 -1104 1187 0
-829 1104 1187 0
-829 -1104 -1187 0
240 779 1101 0
240 -779 -1101 0
-240 779 -1101 0
-240 -779 1101 0
507 732 946 0
507 -732 -946 0
-507 732 -946 0
-507 -732 946 0
716 815 -1068 0
716 -815 1068 0
-716 815 1068 0
-716 -815 -1068 0
131 1128 -1189 0
131 -1128 1189 0
-131 1128 1189 0
-131 -1128 -1189 0
9 770 -1020 0
9 -770 1020 0
-9 770 1020 0
-9 -770 -1020 0
39 1122 1153 0
39 -1122 -1153 0
-39 1122 -1153 0
-39 -1122 1153 0
1011 1117 -1179 0
1011 -1117 1179 0
-1011 1117 1179 0
-1011 -1117 -1179 0
883 965 1156 0
883 -965 -1156 0
-883 965 -1156 0
-883 -965 1156 0
898 937 -1196 0
898 -937 1196 0
-898 937 1196 0
-898 -937 -1196 0
251 648 -1197 0
251 -648 1197 0
-251 648 1197 0
-251 -648 -1197 0
134 706 1167 0
134 -706 -1167 0
-134 706 -1167 0
-134 -706 1167 0
689 941 -1109 0
689 -941 1109 0
-689 941 1109 0
-689 -941 -1109 0
558 1049 1173 0
558 -1049 -1173 0
-558 1049 -1173 0
-558 -1049 1173 0
337 776 875 0
337 -776 -875 0
-337 776 -875 0
-337 -776 875 0
566 743 1195 0
566 -743 -1195 0
-566 743 -1195 0
-566 -743 1195 0
975 1181 1192 0
975 -1181 -1192 0
-975 1181 -1192 0
-975 -1181 1192 0
74 1119 -1154 0
74 -1119 1154 0
-74 1119 1154 0
-74 -1119 -1154 0
33 36 1063 0
33 -36 -1063 0
-33 36 -1063 0
-33 -36 1063 0
1140 1157 -1159 0
1140 -1157 1159 0
-1140 1157 1159 0
-1140 -1157 -1159 0
523 891 -1198 0
523 -891 1198 0
-523 891 1198 0
-523 -891 -1198 0
262 407 1193 0
262 -407 -1193 0
-262 407 -1193 0
-262 -407 1193 0
366 1066 -1147 0
366 -1066 1147 0
-366 1066 1147 0
-366 -1066 -1147 0
676 853 987 0
676 -853 -987 0
-676 853 -987 0
-676 -853 987 0
628 1087 -1174 0
628 -1087 1174 0
-628 1087 1174 0
-628 -1087 -1174 0
139 621 -1199 0
139 -621 1199 0
-139 621 1199 0
-139 -621 -1199 0
101 293 1106 0
101 -293 -1106 0
-101 293 -1106 0
-101 -293 1106 0
951 1005 -1180 0
951 -1005 1180 0
-951 1005 1180 0
-951 -1005 -1180 0
164 719 1146 0
164 -719 -1146 0
-164 719 -1146 0
-164 -719 1146 0
478 521 1112 0
478 -521 -1112 0
-478 521 -1112 0
-478 -521 1112 0
87 636 1055 0
87 -636 -1055 0
-87 636 -1055 0
-87 -636 1055 0
367 456 -1084 0
367 -456 1084 0
-367 456 1084 0
-367 -456 -1084 0
361 768 -871 0
361 -768 871 0
-361 768 871 0
-361 -768 -871 0
278 810 -927 0
278 -810 927 0
-278 810 927 0
-278 -810 -927 0
432 664 -1194 0
432 -664 1194 0
-432 664 1194 0
-432 -664 -1194 0
429 792 -1034 0
429 -792 1034 0
-429 792 1034 0
-429 -792 -1034 0
102 976 -1097 0
102 -976 1097 0
-102 976 1097 0
-102 -976 -1097 0
774 878 995 0
774 -878 -995 0
-774 878 -995 0
-774 -878 995 0
671 857 -1053 0
671 -857 1053 0
-671 857 1053 0
-671 -857 -1053 0
82 590 -873 0
82 -590 873 0
-82 590 873 0
-82 -590 -873 0
350 681 730 0
350 -681 -730 0
-350 681 -730 0
-350 -681 730 0
270 847 942 0
270 -847 -942 0
-270 847 -942 0
-270 -847 942 0
758 786 -1199 0
758 -786 1199 0
-758 786 1199 0
-758 -786 -1199 0
208 848 -1198 0
208 -848 1198 0
-208 848 1198 0
-208 -848 -1198 0
286 790 838 0
286 -790 -838 0
-286 790 -838 0
-286 -790 838 0
651 1012 1168 0
651 -1012 -1168 0
-651 1012 -1168 0
-651 -1012 1168 0
347 437 1026 0
347 -437 -1026 0
-347 437 -1026 0
-347 -437 1026 0
418 827 865 0
418 -827 -865 0
-418 827 -865 0
-418 -827 865 0
481 831 1185 0
481 -831 -1185 0
-481 831 -1185 0
-481 -831 1185 0
75 428 -1133 0
75 -428 1133 0
-75 428 1133 0
-75 -428 -1133 0
153 509 -980 0
153 -509 980 0
-153 509 980 0
-153 -509 -980 0
677 1082 -1190 0
677 -1082 1190 0
-677 1082 1190 0
-677 -1082 -1190 0
622 1016 1197 0
622 -1016 -1197 0
-622 1016 -1197 0
-622 -1016 1197 0
1017 1170 -1200 0
1017 -1170 1200 0
-1017 1170 1200 0
-1017 -1170 -1200 0
423 961 -1200 0
423 -961 1200 0
-423 961 1200 0
-423 -961 -1200 0
665 918 -1196 0
665 -918 1196 0
-665 918 1196 0
-665 -918 -1196 0
568 1080 1188 0
568 -1080 -1188 0
-568 1080 -1188 0
-568 -1080 1188 0
30 424 -1150 0
30 -424 1150 0
-30 424 1150 0
-30 -424 -1150 0
59 353 1178 0
59 -353 -1178 0
-59 353 -1178 0
-59 -353 1178 0
