c description: Tseitin formula on random 3-regular graph on 1000 verices, with odd charge
c generator: CNFgen (0.9.6)
c copyright: (C) 2012-2026 Massimo Lauria <massimo.lauria@uniroma1.it>
c url: https://massimolauria.net/cnfgen
c command line: cnfgen tseitin 1000 3
c
p cnf 1500 4000
1 2 -3 0
1 -2 3 0
-1 2 3 0
-1 -2 -3 0
4 5 -6 0
4 -5 6 0
-4 5 6 0
-4 -5 -6 0
7 8 9 0
7 -8 -9 0
-7 8 -9 0
-7 -8 9 0
10 11 -12 0
10 -11 12 0
-10 11 12 0
-10 -11 -12 0
13 14 -15 0
13 -14 15 0
-13 14 15 0
-13 -14 -15 0
16 17 -18 0
16 -17 18 0
-16 17 18 0
-16 -17 -18 0
19 20 21 0
19 -20 -21 0
-19 20 -21 0
-19 -20 21 0
22 23 -24 0
22 -23 24 0
-22 23 24 0
-22 -23 -24 0
25 26 27 0
25 -26 -27 0
-25 26 -27 0
-25 -26 27 0
28 29 -30 0
28 -29 30 0
-28 29 30 0
-28 -29 -30 0
31 32 -33 0
31 -32 33 0
-31 32 33 0
-31 -32 -33 0
34 35 36 0
34 -35 -36 0
-34 35 -36 0
-34 -35 36 0
31 37 -38 0
31 -37 38 0
-31 37 38 0
-31 -37 -38 0
39 40 41 0
39 -40 -41 0
-39 40 -41 0
-39 -40 41 0
42 43 -44 0
42 -43 44 0
-42 43 44 0
-42 -43 -44 0
25 45 -46 0
25 -45 46 0
-25 45 46 0
-25 -45 -46 0
47 48 49 0
47 -48 -49 0
-47 48 -49 0
-47 -48 49 0
50 51 52 0
50 -51 -52 0
-50 51 -52 0
-50 -51 52 0
53 54 55 0
53 -54 -55 0
-53 54 -55 0
-53 -54 55 0
56 57 -58 0
56 -57 58 0
-56 57 58 0
-56 -57 -58 0
59 60 -61 0
59 -60 61 0
-59 60 61 0
-59 -60 -61 0
62 63 -64 0
62 -63 64 0
-62 63 64 0
-62 -63 -64 0
65 66 67 0
65 -66 -67 0
-65 66 -67 0
-65 -66 67 0
68 69 -70 0
68 -69 70 0
-68 69 70 0
-68 -69 -70 0
71 72 73 0
71 -72 -73 0
-71 72 -73 0
-71 -72 73 0
74 75 -76 0
74 -75 76 0
-74 75 76 0
-74 -75 -76 0
77 78 -79 0
77 -78 79 0
-77 78 79 0
-77 -78 -79 0
80 81 -82 0
80 -81 82 0
-80 81 82 0
-80 -81 -82 0
83 84 -85 0
83 -84 85 0
-83 84 85 0
-83 -84 -85 0
86 87 -88 0
86 -87 88 0
-86 87 88 0
-86 -87 -88 0
89 90 91 0
89 -90 -91 0
-89 90 -91 0
-89 -90 91 0
92 93 94 0
92 -93 -94 0
-92 93 -94 0
-92 -93 94 0
95 96 -97 0
95 -96 97 0
-95 96 97 0
-95 -96 -97 0
98 99 100 0
98 -99 -100 0
-98 99 -100 0
-98 -99 100 0
101 102 103 0
101 -102 -103 0
-101 102 -103 0
-101 -102 103 0
104 105 106 0
104 -105 -106 0
-104 105 -106 0
-104 -105 106 0
107 108 -109 0
107 -108 109 0
-107 108 109 0
-107 -108 -109 0
110 111 -112 0
110 -111 112 0
-110 111 112 0
-110 -111 -112 0
1 113 -114 0
1 -113 114 0
-1 113 114 0
-1 -113 -114 0
115 116 -117 0
115 -116 117 0
-115 116 117 0
-115 -116 -117 0
118 119 120 0
118 -119 -120 0
-118 119 -120 0
-118 -119 120 0
121 122 -123 0
121 -122 123 0
-121 122 123 0
-121 -122 -123 0
124 125 -126 0
124 -125 126 0
-124 125 126 0
-124 -125 -126 0
4 127 -128 0
4 -127 128 0
-4 127 128 0
-4 -127 -128 0
129 130 131 0
129 -130 -131 0
-129 130 -131 0
-129 -130 131 0
132 133 -134 0
132 -133 134 0
-132 133 134 0
-132 -133 -134 0
135 136 -137 0
135 -136 137 0
-135 136 137 0
-135 -136 -137 0
138 139 140 0
138 -139 -140 0
-138 139 -140 0
-138 -139 140 0
47 141 142 0
47 -141 -142 0
-47 141 -142 0
-47 -141 142 0
143 144 -145 0
143 -144 145 0
-143 144 145 0
-143 -144 -145 0
146 147 -148 0
146 -147 148 0
-146 147 148 0
-146 -147 -148 0
149 150 151 0
149 -150 -151 0
-149 150 -151 0
-149 -150 151 0
152 153 -154 0
152 -153 154 0
-152 153 154 0
-152 -153 -154 0
155 156 157 0
155 -156 -157 0
-155 156 -157 0
-155 -156 157 0
158 159 -160 0
158 -159 160 0
-158 159 160 0
-158 -159 -160 0
161 162 163 0
161 -162 -163 0
-161 162 -163 0
-161 -162 163 0
164 165 166 0
164 -165 -166 0
-164 165 -166 0
-164 -165 166 0
167 168 -169 0
167 -168 169 0
-167 168 169 0
-167 -168 -169 0
170 171 -172 0
170 -171 172 0
-170 171 172 0
-170 -171 -172 0
173 174 -175 0
173 -174 175 0
-173 174 175 0
-173 -174 -175 0
65 176 177 0
65 -176 -177 0
-65 176 -177 0
-65 -176 177 0
178 179 180 0
178 -179 -180 0
-178 179 -180 0
-178 -179 180 0
161 181 182 0
161 -181 -182 0
-161 181 -182 0
-161 -181 182 0
183 184 -185 0
183 -184 185 0
-183 184 185 0
-183 -184 -185 0
186 187 -188 0
186 -187 188 0
-186 187 188 0
-186 -187 -188 0
141 189 -190 0
141 -189 190 0
-141 189 190 0
-141 -189 -190 0
191 192 -193 0
191 -192 193 0
-191 192 193 0
-191 -192 -193 0
194 195 -196 0
194 -195 196 0
-194 195 196 0
-194 -195 -196 0
197 198 -199 0
197 -198 199 0
-197 198 199 0
-197 -198 -199 0
200 201 -202 0
200 -201 202 0
-200 201 202 0
-200 -201 -202 0
203 204 205 0
203 -204 -205 0
-203 204 -205 0
-203 -204 205 0
121 206 -207 0
121 -206 207 0
-121 206 207 0
-121 -206 -207 0
208 209 210 0
208 -209 -210 0
-208 209 -210 0
-208 -209 210 0
211 212 -213 0
211 -212 213 0
-211 212 213 0
-211 -212 -213 0
129 214 -215 0
129 -214 215 0
-129 214 215 0
-129 -214 -215 0
216 217 218 0
216 -217 -218 0
-216 217 -218 0
-216 -217 218 0
219 220 -221 0
219 -220 221 0
-219 220 221 0
-219 -220 -221 0
101 222 -223 0
101 -222 223 0
-101 222 223 0
-101 -222 -223 0
224 225 226 0
224 -225 -226 0
-224 225 -226 0
-224 -225 226 0
227 228 229 0
227 -228 -229 0
-227 228 -229 0
-227 -228 229 0
230 231 -232 0
230 -231 232 0
-230 231 232 0
-230 -231 -232 0
233 234 -235 0
233 -234 235 0
-233 234 235 0
-233 -234 -235 0
236 237 238 0
236 -237 -238 0
-236 237 -238 0
-236 -237 238 0
239 240 241 0
239 -240 -241 0
-239 240 -241 0
-239 -240 241 0
242 243 244 0
242 -243 -244 0
-242 243 -244 0
-242 -243 244 0
50 224 245 0
50 -224 -245 0
-50 224 -245 0
-50 -224 245 0
246 247 248 0
246 -247 -248 0
-246 247 -248 0
-246 -247 248 0
135 249 250 0
135 -249 -250 0
-135 249 -250 0
-135 -249 250 0
251 252 -253 0
251 -252 253 0
-251 252 253 0
-251 -252 -253 0
132 254 255 0
132 -254 -255 0
-132 254 -255 0
-132 -254 255 0
256 257 258 0
256 -257 -258 0
-256 257 -258 0
-256 -257 258 0
259 260 261 0
259 -260 -261 0
-259 260 -261 0
-259 -260 261 0
262 263 -264 0
262 -263 264 0
-262 263 264 0
-262 -263 -264 0
265 266 267 0
265 -266 -267 0
-265 266 -267 0
-265 -266 267 0
268 269 270 0
268 -269 -270 0
-268 269 -270 0
-268 -269 270 0
271 272 273 0
271 -272 -273 0
-271 272 -273 0
-271 -272 273 0
274 275 276 0
274 -275 -276 0
-274 275 -276 0
-274 -275 276 0
277 278 -279 0
277 -278 279 0
-277 278 279 0
-277 -278 -279 0
53 280 281 0
53 -280 -281 0
-53 280 -281 0
-53 -280 281 0
216 282 283 0
216 -282 -283 0
-216 282 -283 0
-216 -282 283 0
284 285 -286 0
284 -285 286 0
-284 285 286 0
-284 -285 -286 0
181 287 288 0
181 -287 -288 0
-181 287 -288 0
-181 -287 288 0
110 289 -290 0
110 -289 290 0
-110 289 290 0
-110 -289 -290 0
291 292 293 0
291 -292 -293 0
-291 292 -293 0
-291 -292 293 0
39 294 295 0
39 -294 -295 0
-39 294 -295 0
-39 -294 295 0
296 297 -298 0
296 -297 298 0
-296 297 298 0
-296 -297 -298 0
299 300 301 0
299 -300 -301 0
-299 300 -301 0
-299 -300 301 0
302 303 -304 0
302 -303 304 0
-302 303 304 0
-302 -303 -304 0
305 306 -307 0
305 -306 307 0
-305 306 307 0
-305 -306 -307 0
308 309 310 0
308 -309 -310 0
-308 309 -310 0
-308 -309 310 0
311 312 313 0
311 -312 -313 0
-311 312 -313 0
-311 -312 313 0
314 315 -316 0
314 -315 316 0
-314 315 316 0
-314 -315 -316 0
162 167 -317 0
162 -167 317 0
-162 167 317 0
-162 -167 -317 0
318 319 -320 0
318 -319 320 0
-318 319 320 0
-318 -319 -320 0
5 321 -322 0
5 -321 322 0
-5 321 322 0
-5 -321 -322 0
323 324 -325 0
323 -324 325 0
-323 324 325 0
-323 -324 -325 0
326 327 328 0
326 -327 -328 0
-326 327 -328 0
-326 -327 328 0
329 330 331 0
329 -330 -331 0
-329 330 -331 0
-329 -330 331 0
332 333 -334 0
332 -333 334 0
-332 333 334 0
-332 -333 -334 0
335 336 337 0
335 -336 -337 0
-335 336 -337 0
-335 -336 337 0
338 339 340 0
338 -339 -340 0
-338 339 -340 0
-338 -339 340 0
311 341 342 0
311 -341 -342 0
-311 341 -342 0
-311 -341 342 0
74 335 343 0
74 -335 -343 0
-74 335 -343 0
-74 -335 343 0
186 344 -345 0
186 -344 345 0
-186 344 345 0
-186 -344 -345 0
346 347 -348 0
346 -347 348 0
-346 347 348 0
-346 -347 -348 0
349 350 -351 0
349 -350 351 0
-349 350 351 0
-349 -350 -351 0
352 353 354 0
352 -353 -354 0
-352 353 -354 0
-352 -353 354 0
355 356 -357 0
355 -356 357 0
-355 356 357 0
-355 -356 -357 0
358 359 -360 0
358 -359 360 0
-358 359 360 0
-358 -359 -360 0
178 361 362 0
178 -361 -362 0
-178 361 -362 0
-178 -361 362 0
318 363 -364 0
318 -363 364 0
-318 363 364 0
-318 -363 -364 0
365 366 -367 0
365 -366 367 0
-365 366 367 0
-365 -366 -367 0
368 369 -370 0
368 -369 370 0
-368 369 370 0
-368 -369 -370 0
371 372 -373 0
371 -372 373 0
-371 372 373 0
-371 -372 -373 0
374 375 376 0
374 -375 -376 0
-374 375 -376 0
-374 -375 376 0
377 378 379 0
377 -378 -379 0
-377 378 -379 0
-377 -378 379 0
380 381 -382 0
380 -381 382 0
-380 381 382 0
-380 -381 -382 0
383 384 -385 0
383 -384 385 0
-383 384 385 0
-383 -384 -385 0
386 387 388 0
386 -387 -388 0
-386 387 -388 0
-386 -387 388 0
142 389 390 0
142 -389 -390 0
-142 389 -390 0
-142 -389 390 0
208 391 392 0
208 -391 -392 0
-208 391 -392 0
-208 -391 392 0
393 394 395 0
393 -394 -395 0
-393 394 -395 0
-393 -394 395 0
308 396 -397 0
308 -396 397 0
-308 396 397 0
-308 -396 -397 0
48 398 399 0
48 -398 -399 0
-48 398 -399 0
-48 -398 399 0
104 400 401 0
104 -400 -401 0
-104 400 -401 0
-104 -400 401 0
402 403 -404 0
402 -403 404 0
-402 403 404 0
-402 -403 -404 0
405 406 407 0
405 -406 -407 0
-405 406 -407 0
-405 -406 407 0
408 409 410 0
408 -409 -410 0
-408 409 -410 0
-408 -409 410 0
411 412 413 0
411 -412 -413 0
-411 412 -413 0
-411 -412 413 0
414 415 416 0
414 -415 -416 0
-414 415 -416 0
-414 -415 416 0
417 418 -419 0
417 -418 419 0
-417 418 419 0
-417 -418 -419 0
355 420 421 0
355 -420 -421 0
-355 420 -421 0
-355 -420 421 0
422 423 -424 0
422 -423 424 0
-422 423 424 0
-422 -423 -424 0
425 426 -427 0
425 -426 427 0
-425 426 427 0
-425 -426 -427 0
346 428 -429 0
346 -428 429 0
-346 428 429 0
-346 -428 -429 0
430 431 -432 0
430 -431 432 0
-430 431 432 0
-430 -431 -432 0
368 433 434 0
368 -433 -434 0
-368 433 -434 0
-368 -433 434 0
435 436 -437 0
435 -436 437 0
-435 436 437 0
-435 -436 -437 0
438 439 -440 0
438 -439 440 0
-438 439 440 0
-438 -439 -440 0
441 442 443 0
441 -442 -443 0
-441 442 -443 0
-441 -442 443 0
444 445 -446 0
444 -445 446 0
-444 445 446 0
-444 -445 -446 0
447 448 449 0
447 -448 -449 0
-447 448 -449 0
-447 -448 449 0
450 451 452 0
450 -451 -452 0
-450 451 -452 0
-450 -451 452 0
314 453 454 0
314 -453 -454 0
-314 453 -454 0
-314 -453 454 0
176 455 456 0
176 -455 -456 0
-176 455 -456 0
-176 -455 456 0
457 458 459 0
457 -458 -459 0
-457 458 -459 0
-457 -458 459 0
460 461 -462 0
460 -461 462 0
-460 461 462 0
-460 -461 -462 0
463 464 465 0
463 -464 -465 0
-463 464 -465 0
-463 -464 465 0
466 467 468 0
466 -467 -468 0
-466 467 -468 0
-466 -467 468 0
469 470 471 0
469 -470 -471 0
-469 470 -471 0
-469 -470 471 0
51 472 -473 0
51 -472 473 0
-51 472 473 0
-51 -472 -473 0
391 474 475 0
391 -474 -475 0
-391 474 -475 0
-391 -474 475 0
438 476 -477 0
438 -476 477 0
-438 476 477 0
-438 -476 -477 0
478 479 480 0
478 -479 -480 0
-478 479 -480 0
-478 -479 480 0
481 482 483 0
481 -482 -483 0
-481 482 -483 0
-481 -482 483 0
280 484 -485 0
280 -484 485 0
-280 484 485 0
-280 -484 -485 0
402 486 -487 0
402 -486 487 0
-402 486 487 0
-402 -486 -487 0
138 488 -489 0
138 -488 489 0
-138 488 489 0
-138 -488 -489 0
484 490 491 0
484 -490 -491 0
-484 490 -491 0
-484 -490 491 0
113 492 -493 0
113 -492 493 0
-113 492 493 0
-113 -492 -493 0
494 495 -496 0
494 -495 496 0
-494 495 496 0
-494 -495 -496 0
127 179 -497 0
127 -179 497 0
-127 179 497 0
-127 -179 -497 0
56 498 499 0
56 -498 -499 0
-56 498 -499 0
-56 -498 499 0
62 500 501 0
62 -500 -501 0
-62 500 -501 0
-62 -500 501 0
502 503 -504 0
502 -503 504 0
-502 503 504 0
-502 -503 -504 0
505 506 507 0
505 -506 -507 0
-505 506 -507 0
-505 -506 507 0
508 509 510 0
508 -509 -510 0
-508 509 -510 0
-508 -509 510 0
414 511 512 0
414 -511 -512 0
-414 511 -512 0
-414 -511 512 0
513 514 -515 0
513 -514 515 0
-513 514 515 0
-513 -514 -515 0
326 516 517 0
326 -516 -517 0
-326 516 -517 0
-326 -516 517 0
518 519 520 0
518 -519 -520 0
-518 519 -520 0
-518 -519 520 0
521 522 523 0
521 -522 -523 0
-521 522 -523 0
-521 -522 523 0
524 525 -526 0
524 -525 526 0
-524 525 526 0
-524 -525 -526 0
158 527 528 0
158 -527 -528 0
-158 527 -528 0
-158 -527 528 0
529 530 -531 0
529 -530 531 0
-529 530 531 0
-529 -530 -531 0
532 533 534 0
532 -533 -534 0
-532 533 -534 0
-532 -533 534 0
535 536 -537 0
535 -536 537 0
-535 536 537 0
-535 -536 -537 0
173 236 538 0
173 -236 -538 0
-173 236 -538 0
-173 -236 538 0
371 539 -540 0
371 -539 540 0
-371 539 540 0
-371 -539 -540 0
541 542 -543 0
541 -542 543 0
-541 542 543 0
-541 -542 -543 0
544 545 -546 0
544 -545 546 0
-544 545 546 0
-544 -545 -546 0
547 548 549 0
547 -548 -549 0
-547 548 -549 0
-547 -548 549 0
66 550 551 0
66 -550 -551 0
-66 550 -551 0
-66 -550 551 0
552 553 554 0
552 -553 -554 0
-552 553 -554 0
-552 -553 554 0
118 555 556 0
118 -555 -556 0
-118 555 -556 0
-118 -555 556 0
59 274 -557 0
59 -274 557 0
-59 274 557 0
-59 -274 -557 0
558 559 560 0
558 -559 -560 0
-558 559 -560 0
-558 -559 560 0
561 562 563 0
561 -562 -563 0
-561 562 -563 0
-561 -562 563 0
564 565 566 0
564 -565 -566 0
-564 565 -566 0
-564 -565 566 0
567 568 569 0
567 -568 -569 0
-567 568 -569 0
-567 -568 569 0
570 571 572 0
570 -571 -572 0
-570 571 -572 0
-570 -571 572 0
573 574 575 0
573 -574 -575 0
-573 574 -575 0
-573 -574 575 0
576 577 578 0
576 -577 -578 0
-576 577 -578 0
-576 -577 578 0
494 579 -580 0
494 -579 580 0
-494 579 580 0
-494 -579 -580 0
403 581 -582 0
403 -581 582 0
-403 581 582 0
-403 -581 -582 0
149 583 584 0
149 -583 -584 0
-149 583 -584 0
-149 -583 584 0
450 585 -586 0
450 -585 586 0
-450 585 586 0
-450 -585 -586 0
587 588 589 0
587 -588 -589 0
-587 588 -589 0
-587 -588 589 0
68 590 591 0
68 -590 -591 0
-68 590 -591 0
-68 -590 591 0
592 593 594 0
592 -593 -594 0
-592 593 -594 0
-592 -593 594 0
115 595 596 0
115 -595 -596 0
-115 595 -596 0
-115 -595 596 0
535 597 -598 0
535 -597 598 0
-535 597 598 0
-535 -597 -598 0
521 599 600 0
521 -599 -600 0
-521 599 -600 0
-521 -599 600 0
119 601 602 0
119 -601 -602 0
-119 601 -602 0
-119 -601 602 0
603 604 -605 0
603 -604 605 0
-603 604 605 0
-603 -604 -605 0
606 607 608 0
606 -607 -608 0
-606 607 -608 0
-606 -607 608 0
609 610 -611 0
609 -610 611 0
-609 610 611 0
-609 -610 -611 0
256 287 612 0
256 -287 -612 0
-256 287 -612 0
-256 -287 612 0
323 613 -614 0
323 -613 614 0
-323 613 614 0
-323 -613 -614 0
615 616 617 0
615 -616 -617 0
-615 616 -617 0
-615 -616 617 0
618 619 620 0
618 -619 -620 0
-618 619 -620 0
-618 -619 620 0
60 621 622 0
60 -621 -622 0
-60 621 -622 0
-60 -621 622 0
19 623 624 0
19 -623 -624 0
-19 623 -624 0
-19 -623 624 0
259 420 516 0
259 -420 -516 0
-259 420 -516 0
-259 -420 516 0
28 625 626 0
28 -625 -626 0
-28 625 -626 0
-28 -625 626 0
627 628 -629 0
627 -628 629 0
-627 628 629 0
-627 -628 -629 0
225 302 630 0
225 -302 -630 0
-225 302 -630 0
-225 -302 630 0
631 632 633 0
631 -632 -633 0
-631 632 -633 0
-631 -632 633 0
164 634 635 0
164 -634 -635 0
-164 634 -635 0
-164 -634 635 0
636 637 638 0
636 -637 -638 0
-636 637 -638 0
-636 -637 638 0
639 640 641 0
639 -640 -641 0
-639 640 -641 0
-639 -640 641 0
642 643 644 0
642 -643 -644 0
-642 643 -644 0
-642 -643 644 0
645 646 647 0
645 -646 -647 0
-645 646 -647 0
-645 -646 647 0
303 648 649 0
303 -648 -649 0
-303 648 -649 0
-303 -648 649 0
321 650 651 0
321 -650 -651 0
-321 650 -651 0
-321 -650 651 0
284 652 -653 0
284 -652 653 0
-284 652 653 0
-284 -652 -653 0
654 655 656 0
654 -655 -656 0
-654 655 -656 0
-654 -655 656 0
34 312 657 0
34 -312 -657 0
-34 312 -657 0
-34 -312 657 0
498 527 -658 0
498 -527 658 0
-498 527 658 0
-498 -527 -658 0
659 660 661 0
659 -660 -661 0
-659 660 -661 0
-659 -660 661 0
662 663 -664 0
662 -663 664 0
-662 663 664 0
-662 -663 -664 0
665 666 667 0
665 -666 -667 0
-665 666 -667 0
-665 -666 667 0
668 669 -670 0
668 -669 670 0
-668 669 670 0
-668 -669 -670 0
671 672 673 0
671 -672 -673 0
-671 672 -673 0
-671 -672 673 0
665 674 -675 0
665 -674 675 0
-665 674 675 0
-665 -674 -675 0
676 677 -678 0
676 -677 678 0
-676 677 678 0
-676 -677 -678 0
679 680 -681 0
679 -680 681 0
-679 680 681 0
-679 -680 -681 0
682 683 684 0
682 -683 -684 0
-682 683 -684 0
-682 -683 684 0
685 686 687 0
685 -686 -687 0
-685 686 -687 0
-685 -686 687 0
524 688 689 0
524 -688 -689 0
-524 688 -689 0
-524 -688 689 0
233 497 -690 0
233 -497 690 0
-233 497 690 0
-233 -497 -690 0
612 645 691 0
612 -645 -691 0
-612 645 -691 0
-612 -645 691 0
189 408 692 0
189 -408 -692 0
-189 408 -692 0
-189 -408 692 0
693 694 -695 0
693 -694 695 0
-693 694 695 0
-693 -694 -695 0
631 696 697 0
631 -696 -697 0
-631 696 -697 0
-631 -696 697 0
69 698 -699 0
69 -698 699 0
-69 698 699 0
-69 -698 -699 0
209 700 -701 0
209 -700 701 0
-209 700 701 0
-209 -700 -701 0
702 703 704 0
702 -703 -704 0
-702 703 -704 0
-702 -703 704 0
705 706 707 0
705 -706 -707 0
-705 706 -707 0
-705 -706 707 0
679 708 -709 0
679 -708 709 0
-679 708 709 0
-679 -708 -709 0
646 710 -711 0
646 -710 711 0
-646 710 711 0
-646 -710 -711 0
327 343 -712 0
327 -343 712 0
-327 343 712 0
-327 -343 -712 0
713 714 -715 0
713 -714 715 0
-713 714 715 0
-713 -714 -715 0
702 716 717 0
702 -716 -717 0
-702 716 -717 0
-702 -716 717 0
275 718 -719 0
275 -718 719 0
-275 718 719 0
-275 -718 -719 0
16 70 720 0
16 -70 -720 0
-16 70 -720 0
-16 -70 720 0
365 405 -721 0
365 -405 721 0
-365 405 721 0
-365 -405 -721 0
722 723 724 0
722 -723 -724 0
-722 723 -724 0
-722 -723 724 0
725 726 -727 0
725 -726 727 0
-725 726 727 0
-725 -726 -727 0
728 729 -730 0
728 -729 730 0
-728 729 730 0
-728 -729 -730 0
731 732 -733 0
731 -732 733 0
-731 732 733 0
-731 -732 -733 0
369 447 -734 0
369 -447 734 0
-369 447 734 0
-369 -447 -734 0
735 736 737 0
735 -736 -737 0
-735 736 -737 0
-735 -736 737 0
35 738 -739 0
35 -738 739 0
-35 738 739 0
-35 -738 -739 0
52 197 -740 0
52 -197 740 0
-52 197 740 0
-52 -197 -740 0
741 742 -743 0
741 -742 743 0
-741 742 743 0
-741 -742 -743 0
227 296 -490 0
227 -296 490 0
-227 296 490 0
-227 -296 -490 0
674 744 -745 0
674 -744 745 0
-674 744 745 0
-674 -744 -745 0
573 746 -747 0
573 -746 747 0
-573 746 747 0
-573 -746 -747 0
92 361 748 0
92 -361 -748 0
-92 361 -748 0
-92 -361 748 0
705 749 750 0
705 -749 -750 0
-705 749 -750 0
-705 -749 750 0
228 544 -558 0
228 -544 558 0
-228 544 558 0
-228 -544 -558 0
332 561 659 0
332 -561 -659 0
-332 561 -659 0
-332 -561 659 0
441 466 -751 0
441 -466 751 0
-441 466 751 0
-441 -466 -751 0
17 581 -752 0
17 -581 752 0
-17 581 752 0
-17 -581 -752 0
262 508 -753 0
262 -508 753 0
-262 508 753 0
-262 -508 -753 0
29 476 754 0
29 -476 -754 0
-29 476 -754 0
-29 -476 754 0
105 396 755 0
105 -396 -755 0
-105 396 -755 0
-105 -396 755 0
756 757 -758 0
756 -757 758 0
-756 757 758 0
-756 -757 -758 0
547 759 760 0
547 -759 -760 0
-547 759 -760 0
-547 -759 760 0
393 761 762 0
393 -761 -762 0
-393 761 -762 0
-393 -761 762 0
763 764 -765 0
763 -764 765 0
-763 764 765 0
-763 -764 -765 0
627 766 767 0
627 -766 -767 0
-627 766 -767 0
-627 -766 767 0
297 768 769 0
297 -768 -769 0
-297 768 -769 0
-297 -768 769 0
770 771 772 0
770 -771 -772 0
-770 771 -772 0
-770 -771 772 0
583 773 -774 0
583 -773 774 0
-583 773 774 0
-583 -773 -774 0
7 775 -776 0
7 -775 776 0
-7 775 776 0
-7 -775 -776 0
777 778 779 0
777 -778 -779 0
-777 778 -779 0
-777 -778 779 0
780 781 782 0
780 -781 -782 0
-780 781 -782 0
-780 -781 782 0
333 783 784 0
333 -783 -784 0
-333 783 -784 0
-333 -783 784 0
344 766 785 0
344 -766 -785 0
-344 766 -785 0
-344 -766 785 0
358 545 786 0
358 -545 -786 0
-358 545 -786 0
-358 -545 786 0
294 467 -775 0
294 -467 775 0
-294 467 775 0
-294 -467 -775 0
249 606 706 0
249 -606 -706 0
-249 606 -706 0
-249 -606 706 0
26 618 -787 0
26 -618 787 0
-26 618 787 0
-26 -618 -787 0
788 789 790 0
788 -789 -790 0
-788 789 -790 0
-788 -789 790 0
42 791 792 0
42 -791 -792 0
-42 791 -792 0
-42 -791 792 0
271 793 -794 0
271 -793 794 0
-271 793 794 0
-271 -793 -794 0
722 795 796 0
722 -795 -796 0
-722 795 -796 0
-722 -795 796 0
499 797 -798 0
499 -797 798 0
-499 797 798 0
-499 -797 -798 0
398 642 799 0
398 -642 -799 0
-398 642 -799 0
-398 -642 799 0
435 800 801 0
435 -800 -801 0
-435 800 -801 0
-435 -800 801 0
802 803 804 0
802 -803 -804 0
-802 803 -804 0
-802 -803 804 0
805 806 -807 0
805 -806 807 0
-805 806 807 0
-805 -806 -807 0
174 808 809 0
174 -808 -809 0
-174 808 -809 0
-174 -808 809 0
810 811 812 0
810 -811 -812 0
-810 811 -812 0
-810 -811 812 0
813 814 815 0
813 -814 -815 0
-813 814 -815 0
-813 -814 815 0
816 817 -818 0
816 -817 818 0
-816 817 818 0
-816 -817 -818 0
315 819 -820 0
315 -819 820 0
-315 819 820 0
-315 -819 -820 0
317 386 821 0
317 -386 -821 0
-317 386 -821 0
-317 -386 821 0
636 777 822 0
636 -777 -822 0
-636 777 -822 0
-636 -777 822 0
823 824 -825 0
823 -824 825 0
-823 824 825 0
-823 -824 -825 0
200 813 -826 0
200 -813 826 0
-200 813 826 0
-200 -813 -826 0
827 828 829 0
827 -828 -829 0
-827 828 -829 0
-827 -828 829 0
773 830 831 0
773 -830 -831 0
-773 830 -831 0
-773 -830 831 0
428 680 -832 0
428 -680 832 0
-428 680 832 0
-428 -680 -832 0
833 834 835 0
833 -834 -835 0
-833 834 -835 0
-833 -834 835 0
836 837 838 0
836 -837 -838 0
-836 837 -838 0
-836 -837 838 0
628 839 840 0
628 -839 -840 0
-628 839 -840 0
-628 -839 840 0
463 607 841 0
463 -607 -841 0
-463 607 -841 0
-463 -607 841 0
422 842 -843 0
422 -842 843 0
-422 842 843 0
-422 -842 -843 0
590 844 -845 0
590 -844 845 0
-590 844 845 0
-590 -844 -845 0
324 846 847 0
324 -846 -847 0
-324 846 -847 0
-324 -846 847 0
848 849 -850 0
848 -849 850 0
-848 849 850 0
-848 -849 -850 0
139 851 852 0
139 -851 -852 0
-139 851 -852 0
-139 -851 852 0
853 854 -855 0
853 -854 855 0
-853 854 855 0
-853 -854 -855 0
856 857 858 0
856 -857 -858 0
-856 857 -858 0
-856 -857 858 0
472 859 860 0
472 -859 -860 0
-472 859 -860 0
-472 -859 860 0
8 780 861 0
8 -780 -861 0
-8 780 -861 0
-8 -780 861 0
862 863 864 0
862 -863 -864 0
-862 863 -864 0
-862 -863 864 0
865 866 -867 0
865 -866 867 0
-865 866 867 0
-865 -866 -867 0
89 336 -868 0
89 -336 868 0
-89 336 868 0
-89 -336 -868 0
869 870 -871 0
869 -870 871 0
-869 870 871 0
-869 -870 -871 0
356 872 -873 0
356 -872 873 0
-356 872 873 0
-356 -872 -873 0
18 821 -874 0
18 -821 874 0
-18 821 874 0
-18 -821 -874 0
862 869 -875 0
862 -869 875 0
-862 869 875 0
-862 -869 -875 0
748 876 -877 0
748 -876 877 0
-748 876 877 0
-748 -876 -877 0
61 878 879 0
61 -878 -879 0
-61 878 -879 0
-61 -878 879 0
71 848 880 0
71 -848 -880 0
-71 848 -880 0
-71 -848 880 0
389 592 -881 0
389 -592 881 0
-389 592 881 0
-389 -592 -881 0
124 882 -883 0
124 -882 883 0
-124 882 883 0
-124 -882 -883 0
884 885 886 0
884 -885 -886 0
-884 885 -886 0
-884 -885 886 0
460 887 888 0
460 -887 -888 0
-460 887 -888 0
-460 -887 888 0
889 890 -891 0
889 -890 891 0
-889 890 891 0
-889 -890 -891 0
20 892 -893 0
20 -892 893 0
-20 892 893 0
-20 -892 -893 0
894 895 -896 0
894 -895 896 0
-894 895 896 0
-894 -895 -896 0
666 746 897 0
666 -746 -897 0
-666 746 -897 0
-666 -746 897 0
898 899 -900 0
898 -899 900 0
-898 899 900 0
-898 -899 -900 0
27 788 901 0
27 -788 -901 0
-27 788 -901 0
-27 -788 901 0
597 902 903 0
597 -902 -903 0
-597 902 -903 0
-597 -902 903 0
136 305 637 0
136 -305 -637 0
-136 305 -637 0
-136 -305 637 0
892 904 -905 0
892 -904 905 0
-892 904 905 0
-892 -904 -905 0
394 844 906 0
394 -844 -906 0
-394 844 -906 0
-394 -844 906 0
907 908 -909 0
907 -908 909 0
-907 908 909 0
-907 -908 -909 0
306 910 -911 0
306 -910 911 0
-306 910 911 0
-306 -910 -911 0
282 912 913 0
282 -912 -913 0
-282 912 -913 0
-282 -912 913 0
175 570 -914 0
175 -570 914 0
-175 570 914 0
-175 -570 -914 0
915 916 917 0
915 -916 -917 0
-915 916 -917 0
-915 -916 917 0
67 783 918 0
67 -783 -918 0
-67 783 -918 0
-67 -783 918 0
919 920 -921 0
919 -920 921 0
-919 920 921 0
-919 -920 -921 0
257 349 -793 0
257 -349 793 0
-257 349 793 0
-257 -349 -793 0
43 922 923 0
43 -922 -923 0
-43 922 -923 0
-43 -922 923 0
98 851 924 0
98 -851 -924 0
-98 851 -924 0
-98 -851 924 0
120 925 -926 0
120 -925 926 0
-120 925 926 0
-120 -925 -926 0
621 741 785 0
621 -741 -785 0
-621 741 -785 0
-621 -741 785 0
95 421 927 0
95 -421 -927 0
-95 421 -927 0
-95 -421 927 0
928 929 930 0
928 -929 -930 0
-928 929 -930 0
-928 -929 930 0
931 932 933 0
931 -932 -933 0
-931 932 -933 0
-931 -932 933 0
383 934 935 0
383 -934 -935 0
-383 934 -935 0
-383 -934 935 0
152 833 936 0
152 -833 -936 0
-152 833 -936 0
-152 -833 936 0
876 937 938 0
876 -937 -938 0
-876 937 -938 0
-876 -937 938 0
44 384 915 0
44 -384 -915 0
-44 384 -915 0
-44 -384 915 0
939 940 -941 0
939 -940 941 0
-939 940 941 0
-939 -940 -941 0
206 942 -943 0
206 -942 943 0
-206 942 943 0
-206 -942 -943 0
842 910 -944 0
842 -910 944 0
-842 910 944 0
-842 -910 -944 0
433 945 -946 0
433 -945 946 0
-433 945 946 0
-433 -945 -946 0
217 513 947 0
217 -513 -947 0
-217 513 -947 0
-217 -513 947 0
948 949 950 0
948 -949 -950 0
-948 949 -950 0
-948 -949 950 0
839 928 951 0
839 -928 -951 0
-839 928 -951 0
-839 -928 951 0
334 952 -953 0
334 -952 953 0
-334 952 953 0
-334 -952 -953 0
116 146 939 0
116 -146 -939 0
-116 146 -939 0
-116 -146 939 0
203 954 955 0
203 -954 -955 0
-203 954 -955 0
-203 -954 955 0
814 956 957 0
814 -956 -957 0
-814 956 -957 0
-814 -956 957 0
468 958 959 0
468 -958 -959 0
-468 958 -959 0
-468 -958 959 0
836 960 -961 0
836 -960 961 0
-836 960 961 0
-836 -960 -961 0
395 962 963 0
395 -962 -963 0
-395 962 -963 0
-395 -962 963 0
810 956 -964 0
810 -956 964 0
-810 956 964 0
-810 -956 -964 0
870 919 965 0
870 -919 -965 0
-870 919 -965 0
-870 -919 965 0
80 966 967 0
80 -966 -967 0
-80 966 -967 0
-80 -966 967 0
968 969 970 0
968 -969 -970 0
-968 969 -970 0
-968 -969 970 0
10 163 971 0
10 -163 -971 0
-10 163 -971 0
-10 -163 971 0
183 313 972 0
183 -313 -972 0
-183 313 -972 0
-183 -313 972 0
444 650 791 0
444 -650 -791 0
-444 650 -791 0
-444 -650 791 0
973 974 975 0
973 -974 -975 0
-973 974 -975 0
-973 -974 975 0
789 976 -977 0
789 -976 977 0
-789 976 977 0
-789 -976 -977 0
184 887 -978 0
184 -887 978 0
-184 887 978 0
-184 -887 -978 0
436 979 980 0
436 -979 -980 0
-436 979 -980 0
-436 -979 980 0
893 931 981 0
893 -931 -981 0
-893 931 -981 0
-893 -931 981 0
632 982 -983 0
632 -982 983 0
-632 982 983 0
-632 -982 -983 0
83 647 984 0
83 -647 -984 0
-83 647 -984 0
-83 -647 984 0
140 985 986 0
140 -985 -986 0
-140 985 -986 0
-140 -985 986 0
987 988 989 0
987 -988 -989 0
-987 988 -989 0
-987 -988 989 0
96 481 633 0
96 -481 -633 0
-96 481 -633 0
-96 -481 633 0
907 990 991 0
907 -990 -991 0
-907 990 -991 0
-907 -990 991 0
187 878 948 0
187 -878 -948 0
-187 878 -948 0
-187 -878 948 0
13 415 776 0
13 -415 -776 0
-13 415 -776 0
-13 -415 776 0
281 357 992 0
281 -357 -992 0
-281 357 -992 0
-281 -357 992 0
567 993 -994 0
567 -993 994 0
-567 993 994 0
-567 -993 -994 0
995 996 -997 0
995 -996 997 0
-995 996 997 0
-995 -996 -997 0
998 999 1000 0
998 -999 -1000 0
-998 999 -1000 0
-998 -999 1000 0
753 1001 1002 0
753 -1001 -1002 0
-753 1001 -1002 0
-753 -1001 1002 0
1003 1004 1005 0
1003 -1004 -1005 0
-1003 1004 -1005 0
-1003 -1004 1005 0
904 1006 1007 0
904 -1006 -1007 0
-904 1006 -1007 0
-904 -1006 1007 0
1008 1009 1010 0
1008 -1009 -1010 0
-1008 1009 -1010 0
-1008 -1009 1010 0
509 1011 -1012 0
509 -1011 1012 0
-509 1011 1012 0
-509 -1011 -1012 0
1013 1014 -1015 0
1013 -1014 1015 0
-1013 1014 1015 0
-1013 -1014 -1015 0
1016 1017 1018 0
1016 -1017 -1018 0
-1016 1017 -1018 0
-1016 -1017 1018 0
525 708 -1019 0
525 -708 1019 0
-525 708 1019 0
-525 -708 -1019 0
263 749 -1020 0
263 -749 1020 0
-263 749 1020 0
-263 -749 -1020 0
130 1021 1022 0
130 -1021 -1022 0
-130 1021 -1022 0
-130 -1021 1022 0
1023 1024 -1025 0
1023 -1024 1025 0
-1023 1024 1025 0
-1023 -1024 -1025 0
759 1008 -1026 0
759 -1008 1026 0
-759 1008 1026 0
-759 -1008 -1026 0
1027 1028 -1029 0
1027 -1028 1029 0
-1027 1028 1029 0
-1027 -1028 -1029 0
815 1030 1031 0
815 -1030 -1031 0
-815 1030 -1031 0
-815 -1030 1031 0
742 1032 -1033 0
742 -1032 1033 0
-742 1032 1033 0
-742 -1032 -1033 0
582 1034 -1035 0
582 -1034 1035 0
-582 1034 1035 0
-582 -1034 -1035 0
411 510 1036 0
411 -510 -1036 0
-411 510 -1036 0
-411 -510 1036 0
63 258 -1037 0
63 -258 1037 0
-63 258 1037 0
-63 -258 -1037 0
718 1030 1038 0
718 -1030 -1038 0
-718 1030 -1038 0
-718 -1030 1038 0
90 338 1039 0
90 -338 -1039 0
-90 338 -1039 0
-90 -338 1039 0
603 760 -1040 0
603 -760 1040 0
-603 760 1040 0
-603 -760 -1040 0
743 1041 1042 0
743 -1041 -1042 0
-743 1041 -1042 0
-743 -1041 1042 0
623 735 1043 0
623 -735 -1043 0
-623 735 -1043 0
-623 -735 1043 0
168 552 827 0
168 -552 -827 0
-168 552 -827 0
-168 -552 827 0
1044 1045 -1046 0
1044 -1045 1046 0
-1044 1045 1046 0
-1044 -1045 -1046 0
72 700 1047 0
72 -700 -1047 0
-72 700 -1047 0
-72 -700 1047 0
1047 1048 -1049 0
1047 -1048 1049 0
-1047 1048 1049 0
-1047 -1048 -1049 0
177 957 1050 0
177 -957 -1050 0
-177 957 -1050 0
-177 -957 1050 0
868 1051 -1052 0
868 -1051 1052 0
-868 1051 1052 0
-868 -1051 -1052 0
942 1053 -1054 0
942 -1053 1054 0
-942 1053 1054 0
-942 -1053 -1054 0
170 601 859 0
170 -601 -859 0
-170 601 -859 0
-170 -601 859 0
359 1055 -1056 0
359 -1055 1056 0
-359 1055 1056 0
-359 -1055 -1056 0
707 945 -1057 0
707 -945 1057 0
-707 945 1057 0
-707 -945 -1057 0
550 685 -1058 0
550 -685 1058 0
-550 685 1058 0
-550 -685 -1058 0
770 1059 1060 0
770 -1059 -1060 0
-770 1059 -1060 0
-770 -1059 1060 0
841 1061 1062 0
841 -1061 -1062 0
-841 1061 -1062 0
-841 -1061 1062 0
111 1063 -1064 0
111 -1063 1064 0
-111 1063 1064 0
-111 -1063 -1064 0
81 771 1065 0
81 -771 -1065 0
-81 771 -1065 0
-81 -771 1065 0
564 1032 -1066 0
564 -1032 1066 0
-564 1032 1066 0
-564 -1032 -1066 0
2 1067 1068 0
2 -1067 -1068 0
-2 1067 -1068 0
-2 -1067 1068 0
936 1069 -1070 0
936 -1069 1070 0
-936 1069 1070 0
-936 -1069 -1070 0
469 1071 -1072 0
469 -1071 1072 0
-469 1071 1072 0
-469 -1071 -1072 0
439 781 816 0
439 -781 -816 0
-439 781 -816 0
-439 -781 816 0
1073 1074 1075 0
1073 -1074 -1075 0
-1073 1074 -1075 0
-1073 -1074 1075 0
565 872 -1076 0
565 -872 1076 0
-565 872 1076 0
-565 -872 -1076 0
155 1077 1078 0
155 -1077 -1078 0
-155 1077 -1078 0
-155 -1077 1078 0
1079 1080 1081 0
1079 -1080 -1081 0
-1079 1080 -1081 0
-1079 -1080 1081 0
1082 1083 1084 0
1082 -1083 -1084 0
-1082 1083 -1084 0
-1082 -1083 1084 0
1085 1086 1087 0
1085 -1086 -1087 0
-1085 1086 -1087 0
-1085 -1086 1087 0
188 800 -1088 0
188 -800 1088 0
-188 800 1088 0
-188 -800 -1088 0
968 1089 1090 0
968 -1089 -1090 0
-968 1089 -1090 0
-968 -1089 1090 0
156 1091 -1092 0
156 -1091 1092 0
-156 1091 1092 0
-156 -1091 -1092 0
662 1093 1094 0
662 -1093 -1094 0
-662 1093 -1094 0
-662 -1093 1094 0
399 908 969 0
399 -908 -969 0
-399 908 -969 0
-399 -908 969 0
350 1095 1096 0
350 -1095 -1096 0
-350 1095 -1096 0
-350 -1095 1096 0
159 1095 -1097 0
159 -1095 1097 0
-159 1095 1097 0
-159 -1095 -1097 0
526 973 -1098 0
526 -973 1098 0
-526 973 1098 0
-526 -973 -1098 0
787 1099 1100 0
787 -1099 -1100 0
-787 1099 -1100 0
-787 -1099 1100 0
1101 1102 1103 0
1101 -1102 -1103 0
-1101 1102 -1103 0
-1101 -1102 1103 0
461 914 1104 0
461 -914 -1104 0
-461 914 -1104 0
-461 -914 1104 0
1105 1106 -1107 0
1105 -1106 1107 0
-1105 1106 1107 0
-1105 -1106 -1107 0
219 251 -1108 0
219 -251 1108 0
-219 251 1108 0
-219 -251 -1108 0
1109 1110 1111 0
1109 -1110 -1111 0
-1109 1110 -1111 0
-1109 -1110 1111 0
723 1112 1113 0
723 -1112 -1113 0
-723 1112 -1113 0
-723 -1112 1113 0
1114 1115 -1116 0
1114 -1115 1116 0
-1114 1115 1116 0
-1114 -1115 -1116 0
840 1079 1117 0
840 -1079 -1117 0
-840 1079 -1117 0
-840 -1079 1117 0
207 451 -593 0
207 -451 593 0
-207 451 593 0
-207 -451 -593 0
478 1118 -1119 0
478 -1118 1119 0
-478 1118 1119 0
-478 -1118 -1119 0
242 1019 1120 0
242 -1019 -1120 0
-242 1019 -1120 0
-242 -1019 1120 0
539 1121 1122 0
539 -1121 -1122 0
-539 1121 -1122 0
-539 -1121 1122 0
125 1073 1123 0
125 -1073 -1123 0
-125 1073 -1123 0
-125 -1073 1123 0
703 1123 1124 0
703 -1123 -1124 0
-703 1123 -1124 0
-703 -1123 1124 0
576 1125 -1126 0
576 -1125 1126 0
-576 1125 1126 0
-576 -1125 -1126 0
239 1089 1127 0
239 -1089 -1127 0
-239 1089 -1127 0
-239 -1089 1127 0
1128 1129 1130 0
1128 -1129 -1130 0
-1128 1129 -1130 0
-1128 -1129 1130 0
54 1044 -1131 0
54 -1044 1131 0
-54 1044 1131 0
-54 -1044 -1131 0
11 1132 -1133 0
11 -1132 1133 0
-11 1132 1133 0
-11 -1132 -1133 0
514 668 744 0
514 -668 -744 0
-514 668 -744 0
-514 -668 744 0
201 1134 1135 0
201 -1134 -1135 0
-201 1134 -1135 0
-201 -1134 1135 0
319 856 1136 0
319 -856 -1136 0
-319 856 -1136 0
-319 -856 1136 0
1137 1138 -1139 0
1137 -1138 1139 0
-1137 1138 1139 0
-1137 -1138 -1139 0
126 474 1140 0
126 -474 -1140 0
-126 474 -1140 0
-126 -474 1140 0
211 252 -406 0
211 -252 406 0
-211 252 406 0
-211 -252 -406 0
1141 1142 1143 0
1141 -1142 -1143 0
-1141 1142 -1143 0
-1141 -1142 1143 0
1144 1145 -1146 0
1144 -1145 1146 0
-1144 1145 1146 0
-1144 -1145 -1146 0
671 802 1147 0
671 -802 -1147 0
-671 802 -1147 0
-671 -802 1147 0
1148 1149 -1150 0
1148 -1149 1150 0
-1148 1149 1150 0
-1148 -1149 -1150 0
329 1151 1152 0
329 -1151 -1152 0
-329 1151 -1152 0
-329 -1151 1152 0
143 808 1153 0
143 -808 -1153 0
-143 808 -1153 0
-143 -808 1153 0
768 1091 1154 0
768 -1091 -1154 0
-768 1091 -1154 0
-768 -1091 1154 0
97 1155 1156 0
97 -1155 -1156 0
-97 1155 -1156 0
-97 -1155 1156 0
1157 1158 -1159 0
1157 -1158 1159 0
-1157 1158 1159 0
-1157 -1158 -1159 0
832 1061 -1160 0
832 -1061 1160 0
-832 1061 1160 0
-832 -1061 -1160 0
522 1161 -1162 0
522 -1161 1162 0
-522 1161 1162 0
-522 -1161 -1162 0
500 970 -1163 0
500 -970 1163 0
-500 970 1163 0
-500 -970 -1163 0
150 1164 1165 0
150 -1164 -1165 0
-150 1164 -1165 0
-150 -1164 1165 0
57 971 -1166 0
57 -971 1166 0
-57 971 1166 0
-57 -971 -1166 0
122 817 1167 0
122 -817 -1167 0
-122 817 -1167 0
-122 -817 1167 0
144 430 -1168 0
144 -430 1168 0
-144 430 1168 0
-144 -430 -1168 0
339 1003 -1169 0
339 -1003 1169 0
-339 1003 1169 0
-339 -1003 -1169 0
1170 1171 1172 0
1170 -1171 -1172 0
-1170 1171 -1172 0
-1170 -1171 1172 0
260 1173 -1174 0
260 -1173 1174 0
-260 1173 1174 0
-260 -1173 -1174 0
502 731 1175 0
502 -731 -1175 0
-502 731 -1175 0
-502 -731 1175 0
541 1176 1177 0
541 -1176 -1177 0
-541 1176 -1177 0
-541 -1176 1177 0
1093 1178 1179 0
1093 -1178 -1179 0
-1093 1178 -1179 0
-1093 -1178 1179 0
397 1180 1181 0
397 -1180 -1181 0
-397 1180 -1181 0
-397 -1180 1181 0
875 1101 1182 0
875 -1101 -1182 0
-875 1101 -1182 0
-875 -1101 1182 0
495 1027 -1169 0
495 -1027 1169 0
-495 1027 1169 0
-495 -1027 -1169 0
1183 1184 1185 0
1183 -1184 -1185 0
-1183 1184 -1185 0
-1183 -1184 1185 0
532 682 -1186 0
532 -682 1186 0
-532 682 1186 0
-532 -682 -1186 0
325 385 -1141 0
325 -385 1141 0
-325 385 1141 0
-325 -385 -1141 0
84 1187 -1188 0
84 -1187 1188 0
-84 1187 1188 0
-84 -1187 -1188 0
77 291 675 0
77 -291 -675 0
-77 291 -675 0
-77 -291 675 0
568 1189 -1190 0
568 -1189 1190 0
-568 1189 1190 0
-568 -1189 -1190 0
6 805 -949 0
6 -805 949 0
-6 805 949 0
-6 -805 -949 0
485 966 1191 0
485 -966 -1191 0
-485 966 -1191 0
-485 -966 1191 0
756 1192 1193 0
756 -1192 -1193 0
-756 1192 -1193 0
-756 -1192 1193 0
55 704 -1194 0
55 -704 1194 0
-55 704 1194 0
-55 -704 -1194 0
82 846 979 0
82 -846 -979 0
-82 846 -979 0
-82 -846 979 0
710 1195 1196 0
710 -1195 -1196 0
-710 1195 -1196 0
-710 -1195 1196 0
889 1197 1198 0
889 -1197 -1198 0
-889 1197 -1198 0
-889 -1197 1198 0
511 826 -1055 0
511 -826 1055 0
-511 826 1055 0
-511 -826 -1055 0
1199 1200 -1201 0
1199 -1200 1201 0
-1199 1200 1201 0
-1199 -1200 -1201 0
295 1202 -1203 0
295 -1202 1203 0
-295 1202 1203 0
-295 -1202 -1203 0
1050 1204 -1205 0
1050 -1204 1205 0
-1050 1204 1205 0
-1050 -1204 -1205 0
784 1206 -1207 0
784 -1206 1207 0
-784 1206 1207 0
-784 -1206 -1207 0
811 940 -1001 0
811 -940 1001 0
-811 940 1001 0
-811 -940 -1001 0
417 1208 -1209 0
417 -1208 1209 0
-417 1208 1209 0
-417 -1208 -1209 0
212 488 -1210 0
212 -488 1210 0
-212 488 1210 0
-212 -488 -1210 0
934 1071 1211 0
934 -1071 -1211 0
-934 1071 -1211 0
-934 -1071 1211 0
1194 1212 1213 0
1194 -1212 -1213 0
-1194 1212 -1213 0
-1194 -1212 1213 0
489 536 1128 0
489 -536 -1128 0
-489 536 -1128 0
-489 -536 1128 0
1085 1214 -1215 0
1085 -1214 1215 0
-1085 1214 1215 0
-1085 -1214 -1215 0
1157 1216 1217 0
1157 -1216 -1217 0
-1157 1216 -1217 0
-1157 -1216 1217 0
1176 1195 1218 0
1176 -1195 -1218 0
-1176 1195 -1218 0
-1176 -1195 1218 0
1109 1219 1220 0
1109 -1219 -1220 0
-1109 1219 -1220 0
-1109 -1219 1220 0
352 1221 1222 0
352 -1221 -1222 0
-352 1221 -1222 0
-352 -1221 1222 0
542 1142 -1223 0
542 -1142 1223 0
-542 1142 1223 0
-542 -1142 -1223 0
537 853 -1063 0
537 -853 1063 0
-537 853 1063 0
-537 -853 -1063 0
976 1224 -1225 0
976 -1224 1225 0
-976 1224 1225 0
-976 -1224 -1225 0
234 857 -1226 0
234 -857 1226 0
-234 857 1226 0
-234 -857 -1226 0
901 1227 1228 0
901 -1227 -1228 0
-901 1227 -1228 0
-901 -1227 1228 0
860 1229 1230 0
860 -1229 -1230 0
-860 1229 -1230 0
-860 -1229 1230 0
688 1105 -1231 0
688 -1105 1231 0
-688 1105 1231 0
-688 -1105 -1231 0
1232 1233 -1234 0
1232 -1233 1234 0
-1232 1233 1234 0
-1232 -1233 -1234 0
990 1235 1236 0
990 -1235 -1236 0
-990 1235 -1236 0
-990 -1235 1236 0
204 880 -1237 0
204 -880 1237 0
-204 880 1237 0
-204 -880 -1237 0
145 728 1238 0
145 -728 -1238 0
-145 728 -1238 0
-145 -728 1238 0
529 625 -1239 0
529 -625 1239 0
-529 625 1239 0
-529 -625 -1239 0
1240 1241 -1242 0
1240 -1241 1242 0
-1240 1241 1242 0
-1240 -1241 -1242 0
852 1216 -1243 0
852 -1216 1243 0
-852 1216 1243 0
-852 -1216 -1243 0
341 1244 -1245 0
341 -1244 1245 0
-341 1244 1245 0
-341 -1244 -1245 0
253 553 -1246 0
253 -553 1246 0
-253 553 1246 0
-253 -553 -1246 0
218 1006 -1247 0
218 -1006 1247 0
-218 1006 1247 0
-218 -1006 -1247 0
1248 1249 -1250 0
1248 -1249 1250 0
-1248 1249 1250 0
-1248 -1249 -1250 0
37 102 1251 0
37 -102 -1251 0
-37 102 -1251 0
-37 -102 1251 0
1204 1252 -1253 0
1204 -1252 1253 0
-1204 1252 1253 0
-1204 -1252 -1253 0
45 1254 -1255 0
45 -1254 1255 0
-45 1254 1255 0
-45 -1254 -1255 0
615 830 -1256 0
615 -830 1256 0
-615 830 1256 0
-615 -830 -1256 0
725 799 1143 0
725 -799 -1143 0
-725 799 -1143 0
-725 -799 1143 0
309 712 -1170 0
309 -712 1170 0
-309 712 1170 0
-309 -712 -1170 0
453 477 -1257 0
453 -477 1257 0
-453 477 1257 0
-453 -477 -1257 0
929 1238 1258 0
929 -1238 -1258 0
-929 1238 -1258 0
-929 -1238 1258 0
374 1021 1197 0
374 -1021 -1197 0
-374 1021 -1197 0
-374 -1021 1197 0
599 1131 -1259 0
599 -1131 1259 0
-599 1131 1259 0
-599 -1131 -1259 0
12 1102 -1260 0
12 -1102 1260 0
-12 1102 1260 0
-12 -1102 -1260 0
863 1221 -1261 0
863 -1221 1261 0
-863 1221 1261 0
-863 -1221 -1261 0
377 1232 -1262 0
377 -1232 1262 0
-377 1232 1262 0
-377 -1232 -1262 0
790 865 1263 0
790 -865 -1263 0
-790 865 -1263 0
-790 -865 1263 0
213 418 -1191 0
213 -418 1191 0
-213 418 1191 0
-213 -418 -1191 0
464 626 -769 0
464 -626 769 0
-464 626 769 0
-464 -626 -769 0
462 1219 -1264 0
462 -1219 1264 0
-462 1219 1264 0
-462 -1219 -1264 0
298 1148 1265 0
298 -1148 -1265 0
-298 1148 -1265 0
-298 -1148 1265 0
1164 1257 1266 0
1164 -1257 -1266 0
-1164 1257 -1266 0
-1164 -1257 1266 0
106 947 1045 0
106 -947 -1045 0
-106 947 -1045 0
-106 -947 1045 0
165 559 -1267 0
165 -559 1267 0
-165 559 1267 0
-165 -559 -1267 0
169 351 888 0
169 -351 -888 0
-169 351 -888 0
-169 -351 888 0
584 1182 1268 0
584 -1182 -1268 0
-584 1182 -1268 0
-584 -1182 1268 0
736 1114 1269 0
736 -1114 -1269 0
-736 1114 -1269 0
-736 -1114 1269 0
683 1261 -1270 0
683 -1261 1270 0
-683 1261 1270 0
-683 -1261 -1270 0
691 803 894 0
691 -803 -894 0
-691 803 -894 0
-691 -803 894 0
123 1271 -1272 0
123 -1271 1272 0
-123 1271 1272 0
-123 -1271 -1272 0
14 133 -1273 0
14 -133 1273 0
-14 133 1273 0
-14 -133 -1273 0
254 390 763 0
254 -390 -763 0
-254 390 -763 0
-254 -390 763 0
268 1180 1208 0
268 -1180 -1208 0
-268 1180 -1208 0
-268 -1180 1208 0
137 1259 1274 0
137 -1259 -1274 0
-137 1259 -1274 0
-137 -1259 1274 0
1137 1275 -1276 0
1137 -1275 1276 0
-1137 1275 1276 0
-1137 -1275 -1276 0
555 1132 1277 0
555 -1132 -1277 0
-555 1132 -1277 0
-555 -1132 1277 0
194 1278 -1279 0
194 -1278 1279 0
-194 1278 1279 0
-194 -1278 -1279 0
3 958 1046 0
3 -958 -1046 0
-3 958 -1046 0
-3 -958 1046 0
1028 1280 1281 0
1028 -1280 -1281 0
-1028 1280 -1281 0
-1028 -1280 1281 0
353 1022 -1282 0
353 -1022 1282 0
-353 1022 1282 0
-353 -1022 -1282 0
246 732 -1283 0
246 -732 1283 0
-246 732 1283 0
-246 -732 -1283 0
457 1284 -1285 0
457 -1284 1285 0
-457 1284 1285 0
-457 -1284 -1285 0
1077 1280 -1286 0
1077 -1280 1286 0
-1077 1280 1286 0
-1077 -1280 -1286 0
91 1287 1288 0
91 -1287 -1288 0
-91 1287 -1288 0
-91 -1287 1288 0
9 562 -854 0
9 -562 854 0
-9 562 854 0
-9 -562 -854 0
1041 1251 -1289 0
1041 -1251 1289 0
-1041 1251 1289 0
-1041 -1251 -1289 0
616 943 1290 0
616 -943 -1290 0
-616 943 -1290 0
-616 -943 1290 0
320 1291 1292 0
320 -1291 -1292 0
-320 1291 -1292 0
-320 -1291 1292 0
473 834 1080 0
473 -834 -1080 0
-473 834 -1080 0
-473 -834 1080 0
99 871 902 0
99 -871 -902 0
-99 871 -902 0
-99 -871 902 0
686 1293 -1294 0
686 -1293 1294 0
-686 1293 1294 0
-686 -1293 -1294 0
454 517 -663 0
454 -517 663 0
-454 517 663 0
-454 -517 -663 0
22 237 -1048 0
22 -237 1048 0
-22 237 1048 0
-22 -237 -1048 0
1192 1295 1296 0
1192 -1295 -1296 0
-1192 1295 -1296 0
-1192 -1295 1296 0
73 1125 -1297 0
73 -1125 1297 0
-73 1125 1297 0
-73 -1125 -1297 0
299 643 -1298 0
299 -643 1298 0
-299 643 1298 0
-299 -643 -1298 0
1299 1300 -1301 0
1299 -1300 1301 0
-1299 1300 1301 0
-1299 -1300 -1301 0
1302 1303 -1304 0
1302 -1303 1304 0
-1302 1303 1304 0
-1302 -1303 -1304 0
518 560 -709 0
518 -560 709 0
-518 560 709 0
-518 -560 -709 0
823 1181 1299 0
823 -1181 -1299 0
-823 1181 -1299 0
-823 -1181 1299 0
354 639 -1305 0
354 -639 1305 0
-354 639 1305 0
-354 -639 -1305 0
322 761 -1306 0
322 -761 1306 0
-322 761 1306 0
-322 -761 -1306 0
1149 1298 -1307 0
1149 -1298 1307 0
-1149 1298 1307 0
-1149 -1298 -1307 0
482 1308 1309 0
482 -1308 -1309 0
-482 1308 -1309 0
-482 -1308 1309 0
660 1310 -1311 0
660 -1310 1311 0
-660 1310 1311 0
-660 -1310 -1311 0
1210 1300 1312 0
1210 -1300 -1312 0
-1210 1300 -1312 0
-1210 -1300 1312 0
1154 1313 1314 0
1154 -1313 -1314 0
-1154 1313 -1314 0
-1154 -1313 1314 0
78 1115 -1315 0
78 -1115 1315 0
-78 1115 1315 0
-78 -1115 -1315 0
801 884 -935 0
801 -884 935 0
-801 884 935 0
-801 -884 -935 0
423 1011 -1078 0
423 -1011 1078 0
-423 1011 1078 0
-423 -1011 -1078 0
455 1295 -1316 0
455 -1295 1316 0
-455 1295 1316 0
-455 -1295 -1316 0
250 276 -952 0
250 -276 952 0
-250 276 952 0
-250 -276 -952 0
1317 1318 -1319 0
1317 -1318 1319 0
-1317 1318 1319 0
-1317 -1318 -1319 0
1308 1320 1321 0
1308 -1320 -1321 0
-1308 1320 -1321 0
-1308 -1320 1321 0
310 1320 1322 0
310 -1320 -1322 0
-310 1320 -1322 0
-310 -1320 1322 0
729 819 -1284 0
729 -819 1284 0
-729 819 1284 0
-729 -819 -1284 0
107 1323 -1324 0
107 -1323 1324 0
-107 1323 1324 0
-107 -1323 -1324 0
470 1069 1240 0
470 -1069 -1240 0
-470 1069 -1240 0
-470 -1069 1240 0
380 486 -1325 0
380 -486 1325 0
-380 486 1325 0
-380 -486 -1325 0
757 877 -1326 0
757 -877 1326 0
-757 877 1326 0
-757 -877 -1326 0
652 822 1327 0
652 -822 -1327 0
-652 822 -1327 0
-652 -822 1327 0
835 1328 1329 0
835 -1328 -1329 0
-835 1328 -1329 0
-835 -1328 1329 0
684 1330 1331 0
684 -1330 -1331 0
-684 1330 -1331 0
-684 -1330 1331 0
505 1332 -1333 0
505 -1332 1333 0
-505 1332 1333 0
-505 -1332 -1333 0
220 1334 -1335 0
220 -1334 1335 0
-220 1334 1335 0
-220 -1334 -1335 0
479 1336 1337 0
479 -1336 -1337 0
-479 1336 -1337 0
-479 -1336 1337 0
672 1338 -1339 0
672 -1338 1339 0
-672 1338 1339 0
-672 -1338 -1339 0
492 1189 1340 0
492 -1189 -1340 0
-492 1189 -1340 0
-492 -1189 1340 0
658 1291 1341 0
658 -1291 -1341 0
-658 1291 -1341 0
-658 -1291 1341 0
171 1222 1342 0
171 -1222 -1342 0
-171 1222 -1342 0
-171 -1222 1342 0
195 247 -1343 0
195 -247 1343 0
-195 247 1343 0
-195 -247 -1343 0
46 648 -1235 0
46 -648 1235 0
-46 648 1235 0
-46 -648 -1235 0
634 1016 -1344 0
634 -1016 1344 0
-634 1016 1344 0
-634 -1016 -1344 0
190 982 1266 0
190 -982 -1266 0
-190 982 -1266 0
-190 -982 1266 0
375 967 1330 0
375 -967 -1330 0
-375 967 -1330 0
-375 -967 1330 0
619 1112 1345 0
619 -1112 -1345 0
-619 1112 -1345 0
-619 -1112 1345 0
654 1067 1243 0
654 -1067 -1243 0
-654 1067 -1243 0
-654 -1067 1243 0
288 609 1346 0
288 -609 -1346 0
-288 609 -1346 0
-288 -609 1346 0
944 987 1097 0
944 -987 -1097 0
-944 987 -1097 0
-944 -987 1097 0
1347 1348 1349 0
1347 -1348 -1349 0
-1347 1348 -1349 0
-1347 -1348 1349 0
1163 1350 -1351 0
1163 -1350 1351 0
-1163 1350 1351 0
-1163 -1350 -1351 0
1038 1352 1353 0
1038 -1352 -1353 0
-1038 1352 -1353 0
-1038 -1352 1353 0
429 681 1271 0
429 -681 -1271 0
-429 681 -1271 0
-429 -681 1271 0
147 1033 1183 0
147 -1033 -1183 0
-147 1033 -1183 0
-147 -1033 1183 0
667 1086 1354 0
667 -1086 -1354 0
-667 1086 -1354 0
-667 -1086 1354 0
1066 1355 1356 0
1066 -1355 -1356 0
-1066 1355 -1356 0
-1066 -1355 1356 0
1175 1205 1357 0
1175 -1205 -1357 0
-1175 1205 -1357 0
-1175 -1205 1357 0
1013 1334 1358 0
1013 -1334 -1358 0
-1013 1334 -1358 0
-1013 -1334 1358 0
1009 1096 -1359 0
1009 -1096 1359 0
-1009 1096 1359 0
-1009 -1096 -1359 0
998 1360 -1361 0
998 -1360 1361 0
-998 1360 1361 0
-998 -1360 -1361 0
726 1121 1362 0
726 -1121 -1362 0
-726 1121 -1362 0
-726 -1121 1362 0
898 1328 -1363 0
898 -1328 1363 0
-898 1328 1363 0
-898 -1328 -1363 0
191 1229 -1364 0
191 -1229 1364 0
-191 1229 1364 0
-191 -1229 -1364 0
387 866 -1336 0
387 -866 1336 0
-387 866 1336 0
-387 -866 -1336 0
528 797 983 0
528 -797 -983 0
-528 797 -983 0
-528 -797 983 0
1323 1365 -1366 0
1323 -1365 1366 0
-1323 1365 1366 0
-1323 -1365 -1366 0
767 849 -1367 0
767 -849 1367 0
-767 849 1367 0
-767 -849 -1367 0
595 692 1254 0
595 -692 -1254 0
-595 692 -1254 0
-595 -692 1254 0
1133 1274 1340 0
1133 -1274 -1340 0
-1133 1274 -1340 0
-1133 -1274 1340 0
49 713 -909 0
49 -713 909 0
-49 713 909 0
-49 -713 -909 0
93 1368 1369 0
93 -1368 -1369 0
-93 1368 -1369 0
-93 -1368 1369 0
1352 1370 -1371 0
1352 -1370 1371 0
-1352 1370 1371 0
-1352 -1370 -1371 0
1127 1196 -1248 0
1127 -1196 1248 0
-1127 1196 1248 0
-1127 -1196 -1248 0
1372 1373 -1374 0
1372 -1373 1374 0
-1372 1373 1374 0
-1372 -1373 -1374 0
622 1098 1375 0
622 -1098 -1375 0
-622 1098 -1375 0
-622 -1098 1375 0
340 651 881 0
340 -651 -881 0
-340 651 -881 0
-340 -651 881 0
1376 1377 1378 0
1376 -1377 -1378 0
-1376 1377 -1378 0
-1376 -1377 1378 0
442 530 1223 0
442 -530 -1223 0
-442 530 -1223 0
-442 -530 1223 0
941 1173 1379 0
941 -1173 -1379 0
-941 1173 -1379 0
-941 -1173 1379 0
475 1277 1380 0
475 -1277 -1380 0
-475 1277 -1380 0
-475 -1277 1380 0
265 920 1381 0
265 -920 -1381 0
-265 920 -1381 0
-265 -920 1381 0
1283 1380 1381 0
1283 -1380 -1381 0
-1283 1380 -1381 0
-1283 -1380 1381 0
269 1353 -1382 0
269 -1353 1382 0
-269 1353 1382 0
-269 -1353 -1382 0
676 1241 1383 0
676 -1241 -1383 0
-676 1241 -1383 0
-676 -1241 1383 0
995 1082 -1177 0
995 -1082 1177 0
-995 1082 1177 0
-995 -1082 -1177 0
1260 1306 -1384 0
1260 -1306 1384 0
-1260 1306 1384 0
-1260 -1306 -1384 0
330 1138 1384 0
330 -1138 -1384 0
-330 1138 -1384 0
-330 -1138 1384 0
40 1206 1385 0
40 -1206 -1385 0
-40 1206 -1385 0
-40 -1206 1385 0
392 1056 -1158 0
392 -1056 1158 0
-392 1056 1158 0
-392 -1056 -1158 0
1186 1220 1224 0
1186 -1220 -1224 0
-1186 1220 -1224 0
-1186 -1220 1224 0
1370 1386 -1387 0
1370 -1386 1387 0
-1370 1386 1387 0
-1370 -1386 -1387 0
347 431 750 0
347 -431 -750 0
-347 431 -750 0
-347 -431 750 0
243 950 -1388 0
243 -950 1388 0
-243 950 1388 0
-243 -950 -1388 0
778 1074 -1359 0
778 -1074 1359 0
-778 1074 1359 0
-778 -1074 -1359 0
362 409 758 0
362 -409 -758 0
-362 409 -758 0
-362 -409 758 0
602 882 -972 0
602 -882 972 0
-602 882 972 0
-602 -882 -972 0
412 566 1389 0
412 -566 -1389 0
-412 566 -1389 0
-412 -566 1389 0
964 1053 -1364 0
964 -1053 1364 0
-964 1053 1364 0
-964 -1053 -1364 0
487 1263 -1390 0
487 -1263 1390 0
-487 1263 1390 0
-487 -1263 -1390 0
585 1368 -1391 0
585 -1368 1391 0
-585 1368 1391 0
-585 -1368 -1391 0
548 847 -985 0
548 -847 985 0
-548 847 985 0
-548 -847 -985 0
30 108 1072 0
30 -108 -1072 0
-30 108 -1072 0
-30 -108 1072 0
452 696 -806 0
452 -696 806 0
-452 696 806 0
-452 -696 -806 0
1120 1293 1321 0
1120 -1293 -1321 0
-1120 1293 -1321 0
-1120 -1293 1321 0
425 503 1392 0
425 -503 -1392 0
-425 503 -1392 0
-425 -503 1392 0
261 1226 1393 0
261 -1226 -1393 0
-261 1226 -1393 0
-261 -1226 1393 0
954 978 -1394 0
954 -978 1394 0
-954 978 1394 0
-954 -978 -1394 0
1376 1395 1396 0
1376 -1395 -1396 0
-1376 1395 -1396 0
-1376 -1395 1396 0
669 921 -1144 0
669 -921 1144 0
-669 921 1144 0
-669 -921 -1144 0
270 1227 1355 0
270 -1227 -1355 0
-270 1227 -1355 0
-270 -1227 1355 0
974 1151 1397 0
974 -1151 -1397 0
-974 1151 -1397 0
-974 -1151 1397 0
307 620 -1398 0
307 -620 1398 0
-307 620 1398 0
-307 -620 -1398 0
523 720 -1315 0
523 -720 1315 0
-523 720 1315 0
-523 -720 -1315 0
160 1264 1317 0
160 -1264 -1317 0
-160 1264 -1317 0
-160 -1264 1317 0
15 546 617 0
15 -546 -617 0
-15 546 -617 0
-15 -546 617 0
1004 1399 -1400 0
1004 -1399 1400 0
-1004 1399 1400 0
-1004 -1399 -1400 0
635 903 -1401 0
635 -903 1401 0
-635 903 1401 0
-635 -903 -1401 0
79 557 -1402 0
79 -557 1402 0
-79 557 1402 0
-79 -557 -1402 0
235 1329 -1403 0
235 -1329 1403 0
-235 1329 1403 0
-235 -1329 -1403 0
1358 1404 -1405 0
1358 -1404 1405 0
-1358 1404 1405 0
-1358 -1404 -1405 0
579 1108 1406 0
579 -1108 -1406 0
-579 1108 -1406 0
-579 -1108 1406 0
673 1389 -1407 0
673 -1389 1407 0
-673 1389 1407 0
-673 -1389 -1407 0
157 1178 1408 0
157 -1178 -1408 0
-157 1178 -1408 0
-157 -1178 1408 0
1002 1161 1255 0
1002 -1161 -1255 0
-1002 1161 -1255 0
-1002 -1161 1255 0
38 230 -1409 0
38 -230 1409 0
-38 230 1409 0
-38 -230 -1409 0
737 1273 -1410 0
737 -1273 1410 0
-737 1273 1410 0
-737 -1273 -1410 0
231 1282 -1302 0
231 -1282 1302 0
-231 1282 1302 0
-231 -1282 -1302 0
434 1411 -1412 0
434 -1411 1412 0
-434 1411 1412 0
-434 -1411 -1412 0
962 1413 -1414 0
962 -1413 1414 0
-962 1413 1414 0
-962 -1413 -1414 0
23 448 1415 0
23 -448 -1415 0
-23 448 -1415 0
-23 -448 1415 0
918 1233 -1416 0
918 -1233 1416 0
-918 1233 1416 0
-918 -1233 -1416 0
458 1417 -1418 0
458 -1417 1418 0
-458 1417 1418 0
-458 -1417 -1418 0
506 1332 -1377 0
506 -1332 1377 0
-506 1332 1377 0
-506 -1332 -1377 0
21 610 1403 0
21 -610 -1403 0
-21 610 -1403 0
-21 -610 1403 0
114 629 812 0
114 -629 -812 0
-114 629 -812 0
-114 -629 812 0
762 1419 -1420 0
762 -1419 1420 0
-762 1419 1420 0
-762 -1419 -1420 0
1126 1168 1278 0
1126 -1168 -1278 0
-1126 1168 -1278 0
-1126 -1168 1278 0
378 586 1421 0
378 -586 -1421 0
-378 586 -1421 0
-378 -586 1421 0
1092 1296 -1422 0
1092 -1296 1422 0
-1092 1296 1422 0
-1092 -1296 -1422 0
75 1076 -1279 0
75 -1076 1279 0
-75 1076 1279 0
-75 -1076 -1279 0
613 1064 1423 0
613 -1064 -1423 0
-613 1064 -1423 0
-613 -1064 1423 0
614 837 -1281 0
614 -837 1281 0
-614 837 1281 0
-614 -837 -1281 0
272 1391 -1424 0
272 -1391 1424 0
-272 1391 1424 0
-272 -1391 -1424 0
1392 1425 1426 0
1392 -1425 -1426 0
-1392 1425 -1426 0
-1392 -1425 1426 0
400 988 -1427 0
400 -988 1427 0
-400 988 1427 0
-400 -988 -1427 0
1324 1365 -1419 0
1324 -1365 1419 0
-1324 1365 1419 0
-1324 -1365 -1419 0
426 989 1268 0
426 -989 -1268 0
-426 989 -1268 0
-426 -989 1268 0
153 664 -747 0
153 -664 747 0
-153 664 747 0
-153 -664 -747 0
370 890 1428 0
370 -890 -1428 0
-370 890 -1428 0
-370 -890 1428 0
556 1318 1423 0
556 -1318 -1423 0
-556 1318 -1423 0
-556 -1318 1423 0
531 690 -1269 0
531 -690 1269 0
-531 690 1269 0
-531 -690 -1269 0
41 745 -828 0
41 -745 828 0
-41 745 828 0
-41 -745 -828 0
906 1236 -1429 0
906 -1236 1429 0
-906 1236 1429 0
-906 -1236 -1429 0
255 574 1430 0
255 -574 -1430 0
-255 574 -1430 0
-255 -574 1430 0
932 1379 1431 0
932 -1379 -1431 0
-932 1379 -1431 0
-932 -1379 1431 0
751 1012 1290 0
751 -1012 -1290 0
-751 1012 -1290 0
-751 -1012 1290 0
240 1249 1432 0
240 -1249 -1432 0
-240 1249 -1432 0
-240 -1249 1432 0
657 1150 -1421 0
657 -1150 1421 0
-657 1150 1421 0
-657 -1150 -1421 0
1037 1155 1433 0
1037 -1155 -1433 0
-1037 1155 -1433 0
-1037 -1155 1433 0
829 1270 -1434 0
829 -1270 1434 0
-829 1270 1434 0
-829 -1270 -1434 0
202 1356 1435 0
202 -1356 -1435 0
-202 1356 -1435 0
-202 -1356 1435 0
1034 1436 -1437 0
1034 -1436 1437 0
-1034 1436 1437 0
-1034 -1436 -1437 0
1337 1382 1438 0
1337 -1382 -1438 0
-1337 1382 -1438 0
-1337 -1382 1438 0
885 993 1439 0
885 -993 -1439 0
-885 993 -1439 0
-885 -993 1439 0
604 1026 1383 0
604 -1026 -1383 0
-604 1026 -1383 0
-604 -1026 1383 0
727 1331 -1440 0
727 -1331 1440 0
-727 1331 1440 0
-727 -1331 -1440 0
1023 1428 -1441 0
1023 -1428 1441 0
-1023 1428 1441 0
-1023 -1428 -1441 0
794 937 1202 0
794 -937 -1202 0
-794 937 -1202 0
-794 -937 1202 0
755 1442 -1443 0
755 -1442 1443 0
-755 1442 1443 0
-755 -1442 -1443 0
1029 1444 -1445 0
1029 -1444 1445 0
-1029 1444 1445 0
-1029 -1444 -1445 0
86 1397 1446 0
86 -1397 -1446 0
-86 1397 -1446 0
-86 -1397 1446 0
1244 1447 1448 0
1244 -1447 -1448 0
-1244 1447 -1448 0
-1244 -1447 1448 0
166 1411 -1449 0
166 -1411 1449 0
-166 1411 1449 0
-166 -1411 -1449 0
1190 1450 1451 0
1190 -1450 -1451 0
-1190 1450 -1451 0
-1190 -1450 1451 0
222 244 1452 0
222 -244 -1452 0
-222 244 -1452 0
-222 -244 1452 0
192 577 1367 0
192 -577 -1367 0
-192 577 -1367 0
-192 -577 1367 0
432 1435 -1452 0
432 -1435 1452 0
-432 1435 1452 0
-432 -1435 -1452 0
196 951 -1310 0
196 -951 1310 0
-196 951 1310 0
-196 -951 -1310 0
151 1024 1442 0
151 -1024 -1442 0
-151 1024 -1442 0
-151 -1024 1442 0
1059 1406 -1453 0
1059 -1406 1453 0
-1059 1406 1453 0
-1059 -1406 -1453 0
504 1116 -1167 0
504 -1116 1167 0
-504 1116 1167 0
-504 -1116 -1167 0
289 640 -1297 0
289 -640 1297 0
-289 640 1297 0
-289 -640 -1297 0
445 938 1305 0
445 -938 -1305 0
-445 938 -1305 0
-445 -938 1305 0
410 413 -1265 0
410 -413 1265 0
-410 413 1265 0
-410 -413 -1265 0
100 1245 1427 0
100 -1245 -1427 0
-100 1245 -1427 0
-100 -1245 1427 0
419 1184 -1454 0
419 -1184 1454 0
-419 1184 1454 0
-419 -1184 -1454 0
1385 1455 1456 0
1385 -1455 -1456 0
-1385 1455 -1456 0
-1385 -1455 1456 0
824 867 1457 0
824 -867 -1457 0
-824 867 -1457 0
-824 -867 1457 0
85 807 -1113 0
85 -807 1113 0
-85 807 1113 0
-85 -807 -1113 0
1058 1117 -1166 0
1058 -1117 1166 0
-1058 1117 1166 0
-1058 -1117 -1166 0
605 1017 1458 0
605 -1017 -1458 0
-605 1017 -1458 0
-605 -1017 1458 0
977 1075 -1325 0
977 -1075 1325 0
-977 1075 1325 0
-977 -1075 -1325 0
366 716 -1054 0
366 -716 1054 0
-366 716 1054 0
-366 -716 -1054 0
1010 1275 -1292 0
1010 -1275 1292 0
-1010 1275 1292 0
-1010 -1275 -1292 0
1140 1276 -1459 0
1140 -1276 1459 0
-1140 1276 1459 0
-1140 -1276 -1459 0
895 1094 -1136 0
895 -1094 1136 0
-895 1094 1136 0
-895 -1094 -1136 0
238 292 1099 0
238 -292 -1099 0
-238 292 -1099 0
-238 -292 1099 0
551 809 1460 0
551 -809 -1460 0
-551 809 -1460 0
-551 -809 1460 0
925 1103 1239 0
925 -1103 -1239 0
-925 1103 -1239 0
-925 -1103 1239 0
897 1407 1461 0
897 -1407 -1461 0
-897 1407 -1461 0
-897 -1407 1461 0
554 1408 1462 0
554 -1408 -1462 0
-554 1408 -1462 0
-554 -1408 1462 0
1335 1455 -1463 0
1335 -1455 1463 0
-1335 1455 1463 0
-1335 -1455 -1463 0
1014 1036 1207 0
1014 -1036 -1207 0
-1014 1036 -1207 0
-1014 -1036 1207 0
182 285 1464 0
182 -285 -1464 0
-182 285 -1464 0
-182 -285 1464 0
838 1289 1440 0
838 -1289 -1440 0
-838 1289 -1440 0
-838 -1289 1440 0
946 1399 -1465 0
946 -1399 1465 0
-946 1399 1465 0
-946 -1399 -1465 0
103 198 1165 0
103 -198 -1165 0
-103 198 -1165 0
-103 -198 1165 0
959 1466 1467 0
959 -1466 -1467 0
-959 1466 -1467 0
-959 -1466 1467 0
638 1065 -1347 0
638 -1065 1347 0
-638 1065 1347 0
-638 -1065 -1347 0
404 698 1468 0
404 -698 -1468 0
-404 698 -1468 0
-404 -698 1468 0
515 693 1179 0
515 -693 -1179 0
-515 693 -1179 0
-515 -693 1179 0
1057 1313 -1469 0
1057 -1313 1469 0
-1057 1313 1469 0
-1057 -1313 -1469 0
456 1185 -1237 0
456 -1185 1237 0
-456 1185 1237 0
-456 -1185 -1237 0
1051 1214 -1470 0
1051 -1214 1470 0
-1051 1214 1470 0
-1051 -1214 -1470 0
1230 1471 -1472 0
1230 -1471 1472 0
-1230 1471 1472 0
-1230 -1471 -1472 0
624 661 1422 0
624 -661 -1422 0
-624 661 -1422 0
-624 -661 1422 0
471 1039 -1469 0
471 -1039 1469 0
-471 1039 1469 0
-471 -1039 -1469 0
64 293 360 0
64 -293 -360 0
-64 293 -360 0
-64 -293 360 0
376 540 1466 0
376 -540 -1466 0
-376 540 -1466 0
-376 -540 1466 0
774 795 1473 0
774 -795 -1473 0
-774 795 -1473 0
-774 -795 1473 0
533 899 -1434 0
533 -899 1434 0
-533 899 1434 0
-533 -899 -1434 0
1360 1459 1474 0
1360 -1459 -1474 0
-1360 1459 -1474 0
-1360 -1459 1474 0
1343 1404 1475 0
1343 -1404 -1475 0
-1343 1404 -1475 0
-1343 -1404 1475 0
926 981 1476 0
926 -981 -1476 0
-926 981 -1476 0
-926 -981 1476 0
1020 1477 -1478 0
1020 -1477 1478 0
-1020 1477 1478 0
-1020 -1477 -1478 0
273 1464 -1473 0
273 -1464 1473 0
-273 1464 1473 0
-273 -1464 -1473 0
109 221 933 0
109 -221 -933 0
-109 221 -933 0
-109 -221 933 0
591 608 -1354 0
591 -608 1354 0
-591 608 1354 0
-591 -608 -1354 0
721 896 1395 0
721 -896 -1395 0
-721 896 -1395 0
-721 -896 1395 0
264 1100 1110 0
264 -1100 -1110 0
-264 1100 -1110 0
-264 -1100 1110 0
689 1153 1366 0
689 -1153 -1366 0
-689 1153 -1366 0
-689 -1153 1366 0
677 796 -1319 0
677 -796 1319 0
-677 796 1319 0
-677 -796 -1319 0
277 440 1479 0
277 -440 -1479 0
-277 440 -1479 0
-277 -440 1479 0
407 1436 1480 0
407 -1436 -1480 0
-407 1436 -1480 0
-407 -1436 1480 0
1444 1463 -1481 0
1444 -1463 1481 0
-1444 1463 1481 0
-1444 -1463 -1481 0
571 922 1447 0
571 -922 -1447 0
-571 922 -1447 0
-571 -922 1447 0
128 900 -1247 0
128 -900 1247 0
-128 900 1247 0
-128 -900 -1247 0
855 984 1301 0
855 -984 -1301 0
-855 984 -1301 0
-855 -984 1301 0
694 1118 1174 0
694 -1118 -1174 0
-694 1118 -1174 0
-694 -1118 1174 0
507 1348 1482 0
507 -1348 -1482 0
-507 1348 -1482 0
-507 -1348 1482 0
714 752 1424 0
714 -752 -1424 0
-714 752 -1424 0
-714 -752 1424 0
372 916 -1199 0
372 -916 1199 0
-372 916 1199 0
-372 -916 -1199 0
534 1062 -1441 0
534 -1062 1441 0
-534 1062 1441 0
-534 -1062 -1441 0
798 965 1401 0
798 -965 -1401 0
-798 965 -1401 0
-798 -965 1401 0
449 911 -1361 0
449 -911 1361 0
-449 911 1361 0
-449 -911 -1361 0
598 1052 1106 0
598 -1052 -1106 0
-598 1052 -1106 0
-598 -1052 1106 0
180 1122 1483 0
180 -1122 -1483 0
-180 1122 -1483 0
-180 -1122 1483 0
331 1198 1372 0
331 -1198 -1372 0
-331 1198 -1372 0
-331 -1198 1372 0
724 955 -1396 0
724 -955 1396 0
-724 955 1396 0
-724 -955 -1396 0
24 1476 1484 0
24 -1476 -1484 0
-24 1476 -1484 0
-24 -1476 1484 0
379 443 764 0
379 -443 -764 0
-379 443 -764 0
-379 -443 764 0
401 1129 1246 0
401 -1129 -1246 0
-401 1129 -1246 0
-401 -1129 1246 0
1445 1458 -1485 0
1445 -1458 1485 0
-1445 1458 1485 0
-1445 -1458 -1485 0
1049 1124 -1371 0
1049 -1124 1371 0
-1049 1124 1371 0
-1049 -1124 -1371 0
754 1482 -1486 0
754 -1482 1486 0
-754 1482 1486 0
-754 -1482 -1486 0
575 1417 -1487 0
575 -1417 1487 0
-575 1417 1487 0
-575 -1417 -1487 0
172 873 1209 0
172 -873 -1209 0
-172 873 -1209 0
-172 -873 1209 0
283 992 -1480 0
283 -992 1480 0
-283 992 1480 0
-283 -992 -1480 0
1060 1344 -1488 0
1060 -1344 1488 0
-1060 1344 1488 0
-1060 -1344 -1488 0
1040 1119 -1413 0
1040 -1119 1413 0
-1040 1119 1413 0
-1040 -1119 -1413 0
87 1432 -1489 0
87 -1432 1489 0
-87 1432 1489 0
-87 -1432 -1489 0
199 205 -266 0
199 -205 266 0
-199 205 266 0
-199 -205 -266 0
719 734 1386 0
719 -734 -1386 0
-719 734 -1386 0
-719 -734 1386 0
963 1228 -1490 0
963 -1228 1490 0
-963 1228 1490 0
-963 -1228 -1490 0
1111 1145 1491 0
1111 -1145 -1491 0
-1111 1145 -1491 0
-1111 -1145 1491 0
779 804 1193 0
779 -804 -1193 0
-779 804 -1193 0
-779 -804 1193 0
367 1448 -1467 0
367 -1448 1467 0
-367 1448 1467 0
-367 -1448 -1467 0
1043 1258 -1398 0
1043 -1258 1398 0
-1043 1258 1398 0
-1043 -1258 -1398 0
193 1437 1492 0
193 -1437 -1492 0
-193 1437 -1492 0
-193 -1437 1492 0
587 1160 -1453 0
587 -1160 1453 0
-587 1160 1453 0
-587 -1160 -1453 0
653 1007 -1373 0
653 -1007 1373 0
-653 1007 1373 0
-653 -1007 -1373 0
740 891 912 0
740 -891 -912 0
-740 891 -912 0
-740 -891 912 0
1134 1326 1493 0
1134 -1326 -1493 0
-1134 1326 -1493 0
-1134 -1326 1493 0
715 1146 -1479 0
715 -1146 1479 0
-715 1146 1479 0
-715 -1146 -1479 0
569 1349 1394 0
569 -1349 -1394 0
-569 1349 -1394 0
-569 -1349 1394 0
845 986 -1267 0
845 -986 1267 0
-845 986 1267 0
-845 -986 -1267 0
229 991 -1070 0
229 -991 1070 0
-229 991 1070 0
-229 -991 -1070 0
975 1139 -1388 0
975 -1139 1388 0
-975 1139 1388 0
-975 -1139 -1388 0
493 1285 1287 0
493 -1285 -1287 0
-493 1285 -1287 0
-493 -1285 1287 0
245 1491 1494 0
245 -1491 -1494 0
-245 1491 -1494 0
-245 -1491 1494 0
1262 1483 -1495 0
1262 -1483 1495 0
-1262 1483 1495 0
-1262 -1483 -1495 0
600 1212 -1294 0
600 -1212 1294 0
-600 1212 1294 0
-600 -1212 -1294 0
381 424 1314 0
381 -424 -1314 0
-381 424 -1314 0
-381 -424 1314 0
94 363 1471 0
94 -363 -1471 0
-94 363 -1471 0
-94 -363 1471 0
76 1018 1135 0
76 -1018 -1135 0
-76 1018 -1135 0
-76 -1018 1135 0
1316 1450 -1496 0
1316 -1450 1496 0
-1316 1450 1496 0
-1316 -1450 -1496 0
316 630 1217 0
316 -630 -1217 0
-316 630 -1217 0
-316 -630 1217 0
148 214 861 0
148 -214 -861 0
-148 214 -861 0
-148 -214 861 0
1081 1083 1470 0
1081 -1083 -1470 0
-1081 1083 -1470 0
-1081 -1083 1470 0
131 1104 1425 0
131 -1104 -1425 0
-131 1104 -1425 0
-131 -1104 1425 0
480 678 -1405 0
480 -678 1405 0
-480 678 1405 0
-480 -678 -1405 0
701 1035 -1272 0
701 -1035 1272 0
-701 1035 1272 0
-701 -1035 -1272 0
154 300 738 0
154 -300 -738 0
-154 300 -738 0
-154 -300 738 0
953 1402 -1468 0
953 -1402 1468 0
-953 1402 1468 0
-953 -1402 -1468 0
1369 1414 -1496 0
1369 -1414 1496 0
-1369 1414 1496 0
-1369 -1414 -1496 0
32 695 1412 0
32 -695 -1412 0
-32 695 -1412 0
-32 -695 1412 0
1162 1213 1311 0
1162 -1213 -1311 0
-1162 1213 -1311 0
-1162 -1213 1311 0
501 1088 1495 0
501 -1088 -1495 0
-501 1088 -1495 0
-501 -1088 1495 0
1252 1312 1460 0
1252 -1312 -1460 0
-1252 1312 -1460 0
-1252 -1312 1460 0
917 1042 -1484 0
917 -1042 1484 0
-917 1042 1484 0
-917 -1042 -1484 0
1187 1439 1497 0
1187 -1439 -1497 0
-1187 1439 -1497 0
-1187 -1439 1497 0
994 999 -1171 0
994 -999 1171 0
-994 999 1171 0
-994 -999 -1171 0
58 416 1462 0
58 -416 -1462 0
-58 416 -1462 0
-58 -416 1462 0
1203 1451 -1486 0
1203 -1451 1486 0
-1203 1451 1486 0
-1203 -1451 -1486 0
543 730 924 0
543 -730 -924 0
-543 730 -924 0
-543 -730 924 0
1156 1350 -1420 0
1156 -1350 1420 0
-1156 1350 1420 0
-1156 -1350 -1420 0
670 818 1218 0
670 -818 -1218 0
-670 818 -1218 0
-670 -818 1218 0
483 843 -1498 0
483 -843 1498 0
-483 843 1498 0
-483 -843 -1498 0
538 655 1253 0
538 -655 -1253 0
-538 655 -1253 0
-538 -655 1253 0
328 496 -1200 0
328 -496 1200 0
-328 496 1200 0
-328 -496 -1200 0
549 711 1499 0
549 -711 -1499 0
-549 711 -1499 0
-549 -711 1499 0
1338 1375 -1409 0
1338 -1375 1409 0
-1338 1375 1409 0
-1338 -1375 -1409 0
960 1307 1309 0
960 -1307 -1309 0
-960 1307 -1309 0
-960 -1307 1309 0
512 1087 1363 0
512 -1087 -1363 0
-512 1087 -1363 0
-512 -1087 1363 0
699 1025 -1472 0
699 -1025 1472 0
-699 1025 1472 0
-699 -1025 -1472 0
241 825 831 0
241 -825 -831 0
-241 825 -831 0
-241 -825 831 0
1159 1215 -1438 0
1159 -1215 1438 0
-1159 1215 1438 0
-1159 -1215 -1438 0
930 1201 -1431 0
930 -1201 1431 0
-930 1201 1431 0
-930 -1201 -1431 0
446 879 -1500 0
446 -879 1500 0
-446 879 1500 0
-446 -879 -1500 0
644 996 1005 0
644 -996 -1005 0
-644 996 -1005 0
-644 -996 1005 0
88 1449 -1490 0
88 -1449 1490 0
-88 1449 1490 0
-88 -1449 -1490 0
459 717 -1489 0
459 -717 1489 0
-459 717 1489 0
-459 -717 -1489 0
1387 1393 -1465 0
1387 -1393 1465 0
-1387 1393 1465 0
-1387 -1393 -1465 0
301 1031 -1107 0
301 -1031 1107 0
-301 1031 1107 0
-301 -1031 -1107 0
290 1152 -1454 0
290 -1152 1454 0
-290 1152 1454 0
-290 -1152 -1454 0
388 905 -1147 0
388 -905 1147 0
-388 905 1147 0
-388 -905 -1147 0
588 1000 -1418 0
588 -1000 1418 0
-588 1000 1418 0
-588 -1000 -1418 0
1234 1303 -1494 0
1234 -1303 1494 0
-1234 1303 1494 0
-1234 -1303 -1494 0
687 874 -1225 0
687 -874 1225 0
-687 874 1225 0
-687 -874 -1225 0
1475 1481 -1492 0
1475 -1481 1492 0
-1475 1481 1492 0
-1475 -1481 -1492 0
578 1090 1188 0
578 -1090 -1188 0
-578 1090 -1188 0
-578 -1090 1188 0
134 864 927 0
134 -864 -927 0
-134 864 -927 0
-134 -864 927 0
786 886 1231 0
786 -886 -1231 0
-786 886 -1231 0
-786 -886 1231 0
226 1068 -1487 0
226 -1068 1487 0
-226 1068 1487 0
-226 -1068 -1487 0
373 1250 1474 0
373 -1250 -1474 0
-373 1250 -1474 0
-373 -1250 1474 0
572 1084 -1457 0
572 -1084 1457 0
-572 1084 1457 0
-572 -1084 -1457 0
1172 1351 1378 0
1172 -1351 -1378 0
-1172 1351 -1378 0
-1172 -1351 1378 0
563 641 -1499 0
563 -641 1499 0
-563 641 1499 0
-563 -641 -1499 0
437 1242 1345 0
437 -1242 -1345 0
-437 1242 -1345 0
-437 -1242 1345 0
465 611 739 0
465 -611 -739 0
-465 611 -739 0
-465 -611 739 0
382 792 1339 0
382 -792 -1339 0
-382 792 -1339 0
-382 -792 1339 0
961 1256 1390 0
961 -1256 -1390 0
-961 1256 -1390 0
-961 -1256 1390 0
304 765 1415 0
304 -765 -1415 0
-304 765 -1415 0
-304 -765 1415 0
772 913 1443 0
772 -913 -1443 0
-772 913 -1443 0
-772 -913 1443 0
782 1286 -1493 0
782 -1286 1493 0
-782 1286 1493 0
-782 -1286 -1493 0
112 117 1015 0
112 -117 -1015 0
-112 117 -1015 0
-112 -117 1015 0
997 1346 1429 0
997 -1346 -1429 0
-997 1346 -1429 0
-997 -1346 1429 0
33 348 -1426 0
33 -348 1426 0
-33 348 1426 0
-33 -348 -1426 0
36 427 -656 0
36 -427 656 0
-36 427 656 0
-36 -427 -656 0
589 594 820 0
589 -594 -820 0
-589 594 -820 0
-589 -594 820 0
223 596 -1433 0
223 -596 1433 0
-223 596 1433 0
-223 -596 -1433 0
248 491 -580 0
248 -491 580 0
-248 491 580 0
-248 -491 -580 0
649 1341 1416 0
649 -1341 -1416 0
-649 1341 -1416 0
-649 -1341 1416 0
210 519 1304 0
210 -519 -1304 0
-210 519 -1304 0
-210 -519 1304 0
342 345 -850 0
342 -345 850 0
-342 345 850 0
-342 -345 -850 0
267 520 858 0
267 -520 -858 0
-267 520 -858 0
-267 -520 858 0
215 1485 1488 0
215 -1485 -1488 0
-215 1485 -1488 0
-215 -1485 1488 0
697 1410 -1446 0
697 -1410 1446 0
-697 1410 1446 0
-697 -1410 -1446 0
883 1130 1322 0
883 -1130 -1322 0
-883 1130 -1322 0
-883 -1130 1322 0
1327 1357 -1461 0
1327 -1357 1461 0
-1327 1357 1461 0
-1327 -1357 -1461 0
185 337 1288 0
185 -337 -1288 0
-185 337 -1288 0
-185 -337 1288 0
278 286 -1497 0
278 -286 1497 0
-278 286 1497 0
-278 -286 -1497 0
364 1400 1456 0
364 -1400 -1456 0
-364 1400 -1456 0
-364 -1400 1456 0
733 1211 1362 0
733 -1211 -1362 0
-733 1211 -1362 0
-733 -1211 1362 0
980 1374 1477 0
980 -1374 -1477 0
-980 1374 -1477 0
-980 -1374 1477 0
923 1342 1430 0
923 -1342 -1430 0
-923 1342 -1430 0
-923 -1342 1430 0
279 1333 1478 0
279 -1333 -1478 0
-279 1333 -1478 0
-279 -1333 1478 0
232 1498 1500 0
232 -1498 -1500 0
-232 1498 -1500 0
-232 -1498 1500 0
