c description: Tseitin formula on random 3-regular graph on 800 verices, with odd charge
c generator: CNFgen (0.9.6)
c copyright: (C) 2012-2026 Massimo Lauria <massimo.lauria@uniroma1.it>
c url: https://massimolauria.net/cnfgen
c command line: cnfgen tseitin 800 3
c
p cnf 1200 3200
1 2 3 0
1 -2 -3 0
-1 2 -3 0
-1 -2 3 0
4 5 6 0
4 -5 -6 0
-4 5 -6 0
-4 -5 6 0
7 8 -9 0
7 -8 9 0
-7 8 9 0
-7 -8 -9 0
10 11 -12 0
10 -11 12 0
-10 11 12 0
-10 -11 -12 0
13 14 -15 0
13 -14 15 0
-13 14 15 0
-13 -14 -15 0
16 17 -18 0
16 -17 18 0
-16 17 18 0
-16 -17 -18 0
19 20 21 0
19 -20 -21 0
-19 20 -21 0
-19 -20 21 0
22 23 -24 0
22 -23 24 0
-22 23 24 0
-22 -23 -24 0
25 26 27 0
25 -26 -27 0
-25 26 -27 0
-25 -26 27 0
28 29 30 0
28 -29 -30 0
-28 29 -30 0
-28 -29 30 0
31 32 -33 0
31 -32 33 0
-31 32 33 0
-31 -32 -33 0
34 35 36 0
34 -35 -36 0
-34 35 -36 0
-34 -35 36 0
37 38 -39 0
37 -38 39 0
-37 38 39 0
-37 -38 -39 0
40 41 42 0
40 -41 -42 0
-40 41 -42 0
-40 -41 42 0
43 44 45 0
43 -44 -45 0
-43 44 -45 0
-43 -44 45 0
46 47 -48 0
46 -47 48 0
-46 47 48 0
-46 -47 -48 0
49 50 -51 0
49 -50 51 0
-49 50 51 0
-49 -50 -51 0
52 53 54 0
52 -53 -54 0
-52 53 -54 0
-52 -53 54 0
55 56 57 0
55 -56 -57 0
-55 56 -57 0
-55 -56 57 0
58 59 -60 0
58 -59 60 0
-58 59 60 0
-58 -59 -60 0
61 62 63 0
61 -62 -63 0
-61 62 -63 0
-61 -62 63 0
64 65 66 0
64 -65 -66 0
-64 65 -66 0
-64 -65 66 0
67 68 -69 0
67 -68 69 0
-67 68 69 0
-67 -68 -69 0
70 71 72 0
70 -71 -72 0
-70 71 -72 0
-70 -71 72 0
73 74 -75 0
73 -74 75 0
-73 74 75 0
-73 -74 -75 0
76 77 78 0
76 -77 -78 0
-76 77 -78 0
-76 -77 78 0
79 80 -81 0
79 -80 81 0
-79 80 81 0
-79 -80 -81 0
82 83 84 0
82 -83 -84 0
-82 83 -84 0
-82 -83 84 0
85 86 -87 0
85 -86 87 0
-85 86 87 0
-85 -86 -87 0
88 89 90 0
88 -89 -90 0
-88 89 -90 0
-88 -89 90 0
91 92 -93 0
91 -92 93 0
-91 92 93 0
-91 -92 -93 0
94 95 -96 0
94 -95 96 0
-94 95 96 0
-94 -95 -96 0
97 98 -99 0
97 -98 99 0
-97 98 99 0
-97 -98 -99 0
100 101 102 0
100 -101 -102 0
-100 101 -102 0
-100 -101 102 0
103 104 105 0
103 -104 -105 0
-103 104 -105 0
-103 -104 105 0
106 107 -108 0
106 -107 108 0
-106 107 108 0
-106 -107 -108 0
109 110 -111 0
109 -110 111 0
-109 110 111 0
-109 -110 -111 0
112 113 114 0
112 -113 -114 0
-112 113 -114 0
-112 -113 114 0
115 116 -117 0
115 -116 117 0
-115 116 117 0
-115 -116 -117 0
118 119 -120 0
118 -119 120 0
-118 119 120 0
-118 -119 -120 0
121 122 123 0
121 -122 -123 0
-121 122 -123 0
-121 -122 123 0
124 125 126 0
124 -125 -126 0
-124 125 -126 0
-124 -125 126 0
127 128 -129 0
127 -128 129 0
-127 128 129 0
-127 -128 -129 0
130 131 132 0
130 -131 -132 0
-130 131 -132 0
-130 -131 132 0
133 134 135 0
133 -134 -135 0
-133 134 -135 0
-133 -134 135 0
136 137 -138 0
136 -137 138 0
-136 137 138 0
-136 -137 -138 0
139 140 -141 0
139 -140 141 0
-139 140 141 0
-139 -140 -141 0
142 143 -144 0
142 -143 144 0
-142 143 144 0
-142 -143 -144 0
145 146 147 0
145 -146 -147 0
-145 146 -147 0
-145 -146 147 0
148 149 -150 0
148 -149 150 0
-148 149 150 0
-148 -149 -150 0
151 152 153 0
151 -152 -153 0
-151 152 -153 0
-151 -152 153 0
154 155 -156 0
154 -155 156 0
-154 155 156 0
-154 -155 -156 0
157 158 -159 0
157 -158 159 0
-157 158 159 0
-157 -158 -159 0
160 161 162 0
160 -161 -162 0
-160 161 -162 0
-160 -161 162 0
163 164 165 0
163 -164 -165 0
-163 164 -165 0
-163 -164 165 0
166 167 -168 0
166 -167 168 0
-166 167 168 0
-166 -167 -168 0
169 170 171 0
169 -170 -171 0
-169 170 -171 0
-169 -170 171 0
1 172 173 0
1 -172 -173 0
-1 172 -173 0
-1 -172 173 0
163 174 -175 0
163 -174 175 0
-163 174 175 0
-163 -174 -175 0
52 176 177 0
52 -176 -177 0
-52 176 -177 0
-52 -176 177 0
178 179 -180 0
178 -179 180 0
-178 179 180 0
-178 -179 -180 0
181 182 183 0
181 -182 -183 0
-181 182 -183 0
-181 -182 183 0
184 185 186 0
184 -185 -186 0
-184 185 -186 0
-184 -185 186 0
187 188 -189 0
187 -188 189 0
-187 188 189 0
-187 -188 -189 0
190 191 192 0
190 -191 -192 0
-190 191 -192 0
-190 -191 192 0
193 194 195 0
193 -194 -195 0
-193 194 -195 0
-193 -194 195 0
196 197 198 0
196 -197 -198 0
-196 197 -198 0
-196 -197 198 0
199 200 201 0
199 -200 -201 0
-199 200 -201 0
-199 -200 201 0
55 202 203 0
55 -202 -203 0
-55 202 -203 0
-55 -202 203 0
16 204 -205 0
16 -204 205 0
-16 204 205 0
-16 -204 -205 0
206 207 -208 0
206 -207 208 0
-206 207 208 0
-206 -207 -208 0
209 210 211 0
209 -210 -211 0
-209 210 -211 0
-209 -210 211 0
212 213 -214 0
212 -213 214 0
-212 213 214 0
-212 -213 -214 0
215 216 217 0
215 -216 -217 0
-215 216 -217 0
-215 -216 217 0
19 218 -219 0
19 -218 219 0
-19 218 219 0
-19 -218 -219 0
124 220 221 0
124 -220 -221 0
-124 220 -221 0
-124 -220 221 0
222 223 -224 0
222 -223 224 0
-222 223 224 0
-222 -223 -224 0
225 226 227 0
225 -226 -227 0
-225 226 -227 0
-225 -226 227 0
228 229 -230 0
228 -229 230 0
-228 229 230 0
-228 -229 -230 0
231 232 -233 0
231 -232 233 0
-231 232 233 0
-231 -232 -233 0
234 235 236 0
234 -235 -236 0
-234 235 -236 0
-234 -235 236 0
237 238 239 0
237 -238 -239 0
-237 238 -239 0
-237 -238 239 0
85 100 240 0
85 -100 -240 0
-85 100 -240 0
-85 -100 240 0
241 242 -243 0
241 -242 243 0
-241 242 243 0
-241 -242 -243 0
244 245 246 0
244 -245 -246 0
-244 245 -246 0
-244 -245 246 0
247 248 249 0
247 -248 -249 0
-247 248 -249 0
-247 -248 249 0
250 251 -252 0
250 -251 252 0
-250 251 252 0
-250 -251 -252 0
253 254 255 0
253 -254 -255 0
-253 254 -255 0
-253 -254 255 0
76 256 257 0
76 -256 -257 0
-76 256 -257 0
-76 -256 257 0
258 259 -260 0
258 -259 260 0
-258 259 260 0
-258 -259 -260 0
261 262 263 0
261 -262 -263 0
-261 262 -263 0
-261 -262 263 0
264 265 -266 0
264 -265 266 0
-264 265 266 0
-264 -265 -266 0
267 268 -269 0
267 -268 269 0
-267 268 269 0
-267 -268 -269 0
103 270 271 0
103 -270 -271 0
-103 270 -271 0
-103 -270 271 0
272 273 -274 0
272 -273 274 0
-272 273 274 0
-272 -273 -274 0
181 275 276 0
181 -275 -276 0
-181 275 -276 0
-181 -275 276 0
277 278 279 0
277 -278 -279 0
-277 278 -279 0
-277 -278 279 0
280 281 282 0
280 -281 -282 0
-280 281 -282 0
-280 -281 282 0
283 284 285 0
283 -284 -285 0
-283 284 -285 0
-283 -284 285 0
286 287 288 0
286 -287 -288 0
-286 287 -288 0
-286 -287 288 0
289 290 291 0
289 -290 -291 0
-289 290 -291 0
-289 -290 291 0
130 292 -293 0
130 -292 293 0
-130 292 293 0
-130 -292 -293 0
294 295 296 0
294 -295 -296 0
-294 295 -296 0
-294 -295 296 0
294 297 298 0
294 -297 -298 0
-294 297 -298 0
-294 -297 298 0
299 300 -301 0
299 -300 301 0
-299 300 301 0
-299 -300 -301 0
302 303 -304 0
302 -303 304 0
-302 303 304 0
-302 -303 -304 0
305 306 -307 0
305 -306 307 0
-305 306 307 0
-305 -306 -307 0
308 309 310 0
308 -309 -310 0
-308 309 -310 0
-308 -309 310 0
311 312 313 0
311 -312 -313 0
-311 312 -313 0
-311 -312 313 0
314 315 -316 0
314 -315 316 0
-314 315 316 0
-314 -315 -316 0
317 318 -319 0
317 -318 319 0
-317 318 319 0
-317 -318 -319 0
37 320 -321 0
37 -320 321 0
-37 320 321 0
-37 -320 -321 0
322 323 324 0
322 -323 -324 0
-322 323 -324 0
-322 -323 324 0
325 326 327 0
325 -326 -327 0
-325 326 -327 0
-325 -326 327 0
160 328 329 0
160 -328 -329 0
-160 328 -329 0
-160 -328 329 0
330 331 -332 0
330 -331 332 0
-330 331 332 0
-330 -331 -332 0
115 333 -334 0
115 -333 334 0
-115 333 334 0
-115 -333 -334 0
241 335 336 0
241 -335 -336 0
-241 335 -336 0
-241 -335 336 0
337 338 339 0
337 -338 -339 0
-337 338 -339 0
-337 -338 339 0
292 340 341 0
292 -340 -341 0
-292 340 -341 0
-292 -340 341 0
342 343 344 0
342 -343 -344 0
-342 343 -344 0
-342 -343 344 0
345 346 347 0
345 -346 -347 0
-345 346 -347 0
-345 -346 347 0
348 349 350 0
348 -349 -350 0
-348 349 -350 0
-348 -349 350 0
351 352 -353 0
351 -352 353 0
-351 352 353 0
-351 -352 -353 0
297 354 -355 0
297 -354 355 0
-297 354 355 0
-297 -354 -355 0
356 357 -358 0
356 -357 358 0
-356 357 358 0
-356 -357 -358 0
299 359 -360 0
299 -359 360 0
-299 359 360 0
-299 -359 -360 0
77 361 -362 0
77 -361 362 0
-77 361 362 0
-77 -361 -362 0
157 363 364 0
157 -363 -364 0
-157 363 -364 0
-157 -363 364 0
109 277 365 0
109 -277 -365 0
-109 277 -365 0
-109 -277 365 0
161 366 -367 0
161 -366 367 0
-161 366 367 0
-161 -366 -367 0
25 368 -369 0
25 -368 369 0
-25 368 369 0
-25 -368 -369 0
370 371 372 0
370 -371 -372 0
-370 371 -372 0
-370 -371 372 0
314 373 -374 0
314 -373 374 0
-314 373 374 0
-314 -373 -374 0
13 264 -375 0
13 -264 375 0
-13 264 375 0
-13 -264 -375 0
118 376 377 0
118 -376 -377 0
-118 376 -377 0
-118 -376 377 0
82 378 379 0
82 -378 -379 0
-82 378 -379 0
-82 -378 379 0
278 317 -380 0
278 -317 380 0
-278 317 380 0
-278 -317 -380 0
356 381 382 0
356 -381 -382 0
-356 381 -382 0
-356 -381 382 0
383 384 -385 0
383 -384 385 0
-383 384 385 0
-383 -384 -385 0
386 387 388 0
386 -387 -388 0
-386 387 -388 0
-386 -387 388 0
389 390 391 0
389 -390 -391 0
-389 390 -391 0
-389 -390 391 0
218 256 392 0
218 -256 -392 0
-218 256 -392 0
-218 -256 392 0
393 394 -395 0
393 -394 395 0
-393 394 395 0
-393 -394 -395 0
43 67 -396 0
43 -67 396 0
-43 67 396 0
-43 -67 -396 0
354 397 -398 0
354 -397 398 0
-354 397 398 0
-354 -397 -398 0
335 399 -400 0
335 -399 400 0
-335 399 400 0
-335 -399 -400 0
401 402 -403 0
401 -402 403 0
-401 402 403 0
-401 -402 -403 0
404 405 406 0
404 -405 -406 0
-404 405 -406 0
-404 -405 406 0
407 408 409 0
407 -408 -409 0
-407 408 -409 0
-407 -408 409 0
410 411 -412 0
410 -411 412 0
-410 411 412 0
-410 -411 -412 0
413 414 -415 0
413 -414 415 0
-413 414 415 0
-413 -414 -415 0
28 70 -416 0
28 -70 416 0
-28 70 416 0
-28 -70 -416 0
193 417 418 0
193 -417 -418 0
-193 417 -418 0
-193 -417 418 0
330 419 420 0
330 -419 -420 0
-330 419 -420 0
-330 -419 420 0
79 421 -422 0
79 -421 422 0
-79 421 422 0
-79 -421 -422 0
404 423 -424 0
404 -423 424 0
-404 423 424 0
-404 -423 -424 0
425 426 -427 0
425 -426 427 0
-425 426 427 0
-425 -426 -427 0
428 429 -430 0
428 -429 430 0
-428 429 430 0
-428 -429 -430 0
431 432 433 0
431 -432 -433 0
-431 432 -433 0
-431 -432 433 0
145 389 -434 0
145 -389 434 0
-145 389 434 0
-145 -389 -434 0
435 436 -437 0
435 -436 437 0
-435 436 437 0
-435 -436 -437 0
438 439 440 0
438 -439 -440 0
-438 439 -440 0
-438 -439 440 0
58 441 -442 0
58 -441 442 0
-58 441 442 0
-58 -441 -442 0
206 261 -443 0
206 -261 443 0
-206 261 443 0
-206 -261 -443 0
244 308 444 0
244 -308 -444 0
-244 308 -444 0
-244 -308 444 0
445 446 447 0
445 -446 -447 0
-445 446 -447 0
-445 -446 447 0
448 449 -450 0
448 -449 450 0
-448 449 450 0
-448 -449 -450 0
451 452 453 0
451 -452 -453 0
-451 452 -453 0
-451 -452 453 0
399 454 -455 0
399 -454 455 0
-399 454 455 0
-399 -454 -455 0
456 457 458 0
456 -457 -458 0
-456 457 -458 0
-456 -457 458 0
272 459 460 0
272 -459 -460 0
-272 459 -460 0
-272 -459 460 0
461 462 -463 0
461 -462 463 0
-461 462 463 0
-461 -462 -463 0
464 465 -466 0
464 -465 466 0
-464 465 466 0
-464 -465 -466 0
467 468 469 0
467 -468 -469 0
-467 468 -469 0
-467 -468 469 0
470 471 472 0
470 -471 -472 0
-470 471 -472 0
-470 -471 472 0
209 454 -473 0
209 -454 473 0
-209 454 473 0
-209 -454 -473 0
267 474 475 0
267 -474 -475 0
-267 474 -475 0
-267 -474 475 0
368 476 477 0
368 -476 -477 0
-368 476 -477 0
-368 -476 477 0
467 478 -479 0
467 -478 479 0
-467 478 479 0
-467 -478 -479 0
480 481 -482 0
480 -481 482 0
-480 481 482 0
-480 -481 -482 0
483 484 -485 0
483 -484 485 0
-483 484 485 0
-483 -484 -485 0
410 486 487 0
410 -486 -487 0
-410 486 -487 0
-410 -486 487 0
488 489 490 0
488 -489 -490 0
-488 489 -490 0
-488 -489 490 0
491 492 -493 0
491 -492 493 0
-491 492 493 0
-491 -492 -493 0
444 494 495 0
444 -494 -495 0
-444 494 -495 0
-444 -494 495 0
38 496 497 0
38 -496 -497 0
-38 496 -497 0
-38 -496 497 0
498 499 -500 0
498 -499 500 0
-498 499 500 0
-498 -499 -500 0
501 502 503 0
501 -502 -503 0
-501 502 -503 0
-501 -502 503 0
504 505 -506 0
504 -505 506 0
-504 505 506 0
-504 -505 -506 0
337 351 -507 0
337 -351 507 0
-337 351 507 0
-337 -351 -507 0
178 508 509 0
178 -508 -509 0
-178 508 -509 0
-178 -508 509 0
219 510 511 0
219 -510 -511 0
-219 510 -511 0
-219 -510 511 0
184 512 513 0
184 -512 -513 0
-184 512 -513 0
-184 -512 513 0
338 514 515 0
338 -514 -515 0
-338 514 -515 0
-338 -514 515 0
474 516 -517 0
474 -516 517 0
-474 516 517 0
-474 -516 -517 0
518 519 520 0
518 -519 -520 0
-518 519 -520 0
-518 -519 520 0
370 521 -522 0
370 -521 522 0
-370 521 522 0
-370 -521 -522 0
523 524 525 0
523 -524 -525 0
-523 524 -525 0
-523 -524 525 0
401 526 -527 0
401 -526 527 0
-401 526 527 0
-401 -526 -527 0
139 528 -529 0
139 -528 529 0
-139 528 529 0
-139 -528 -529 0
40 68 -530 0
40 -68 530 0
-40 68 530 0
-40 -68 -530 0
531 532 533 0
531 -532 -533 0
-531 532 -533 0
-531 -532 533 0
53 534 -535 0
53 -534 535 0
-53 534 535 0
-53 -534 -535 0
536 537 538 0
536 -537 -538 0
-536 537 -538 0
-536 -537 538 0
210 289 -539 0
210 -289 539 0
-210 289 539 0
-210 -289 -539 0
162 456 540 0
162 -456 -540 0
-162 456 -540 0
-162 -456 540 0
2 245 -541 0
2 -245 541 0
-2 245 541 0
-2 -245 -541 0
309 542 -543 0
309 -542 543 0
-309 542 543 0
-309 -542 -543 0
148 544 545 0
148 -544 -545 0
-148 544 -545 0
-148 -544 545 0
14 546 547 0
14 -546 -547 0
-14 546 -547 0
-14 -546 547 0
166 548 -549 0
166 -548 549 0
-166 548 549 0
-166 -548 -549 0
116 275 -550 0
116 -275 550 0
-116 275 550 0
-116 -275 -550 0
441 551 552 0
441 -551 -552 0
-441 551 -552 0
-441 -551 552 0
553 554 555 0
553 -554 -555 0
-553 554 -555 0
-553 -554 555 0
54 556 557 0
54 -556 -557 0
-54 556 -557 0
-54 -556 557 0
20 445 -558 0
20 -445 558 0
-20 445 558 0
-20 -445 -558 0
94 182 342 0
94 -182 -342 0
-94 182 -342 0
-94 -182 342 0
343 470 -559 0
343 -470 559 0
-343 470 559 0
-343 -470 -559 0
56 560 -561 0
56 -560 561 0
-56 560 561 0
-56 -560 -561 0
119 562 -563 0
119 -562 563 0
-119 562 563 0
-119 -562 -563 0
419 564 565 0
419 -564 -565 0
-419 564 -565 0
-419 -564 565 0
142 566 567 0
142 -566 -567 0
-142 566 -567 0
-142 -566 567 0
411 568 -569 0
411 -568 569 0
-411 568 569 0
-411 -568 -569 0
325 570 571 0
325 -570 -571 0
-325 570 -571 0
-325 -570 571 0
572 573 574 0
572 -573 -574 0
-572 573 -574 0
-572 -573 574 0
169 575 576 0
169 -575 -576 0
-169 575 -576 0
-169 -575 576 0
518 577 -578 0
518 -577 578 0
-518 577 578 0
-518 -577 -578 0
376 579 580 0
376 -579 -580 0
-376 579 -580 0
-376 -579 580 0
442 581 -582 0
442 -581 582 0
-442 581 582 0
-442 -581 -582 0
583 584 -585 0
583 -584 585 0
-583 584 585 0
-583 -584 -585 0
586 587 588 0
586 -587 -588 0
-586 587 -588 0
-586 -587 588 0
475 589 590 0
475 -589 -590 0
-475 589 -590 0
-475 -589 590 0
591 592 -593 0
591 -592 593 0
-591 592 593 0
-591 -592 -593 0
172 594 -595 0
172 -594 595 0
-172 594 595 0
-172 -594 -595 0
373 596 597 0
373 -596 -597 0
-373 596 -597 0
-373 -596 597 0
536 598 599 0
536 -598 -599 0
-536 598 -599 0
-536 -598 599 0
568 575 600 0
568 -575 -600 0
-568 575 -600 0
-568 -575 600 0
569 601 602 0
569 -601 -602 0
-569 601 -602 0
-569 -601 602 0
550 603 604 0
550 -603 -604 0
-550 603 -604 0
-550 -603 604 0
598 605 -606 0
598 -605 606 0
-598 605 606 0
-598 -605 -606 0
302 607 608 0
302 -607 -608 0
-302 607 -608 0
-302 -607 608 0
83 609 610 0
83 -609 -610 0
-83 609 -610 0
-83 -609 610 0
300 443 -611 0
300 -443 611 0
-300 443 611 0
-300 -443 -611 0
596 612 -613 0
596 -612 613 0
-596 612 613 0
-596 -612 -613 0
431 612 614 0
431 -612 -614 0
-431 612 -614 0
-431 -612 614 0
146 615 616 0
146 -615 -616 0
-146 615 -616 0
-146 -615 616 0
228 617 618 0
228 -617 -618 0
-228 617 -618 0
-228 -617 618 0
199 265 303 0
199 -265 -303 0
-199 265 -303 0
-199 -265 303 0
4 619 -620 0
4 -619 620 0
-4 619 620 0
-4 -619 -620 0
621 622 623 0
621 -622 -623 0
-621 622 -623 0
-621 -622 623 0
237 624 625 0
237 -624 -625 0
-237 624 -625 0
-237 -624 625 0
626 627 628 0
626 -627 -628 0
-626 627 -628 0
-626 -627 628 0
286 629 630 0
286 -629 -630 0
-286 629 -630 0
-286 -629 630 0
480 631 -632 0
480 -631 632 0
-480 631 632 0
-480 -631 -632 0
633 634 -635 0
633 -634 635 0
-633 634 635 0
-633 -634 -635 0
523 636 -637 0
523 -636 637 0
-523 636 637 0
-523 -636 -637 0
425 638 -639 0
425 -638 639 0
-425 638 639 0
-425 -638 -639 0
49 106 -640 0
49 -106 640 0
-49 106 640 0
-49 -106 -640 0
202 641 642 0
202 -641 -642 0
-202 641 -642 0
-202 -641 642 0
328 643 -644 0
328 -643 644 0
-328 643 644 0
-328 -643 -644 0
7 645 -646 0
7 -645 646 0
-7 645 646 0
-7 -645 -646 0
104 591 -647 0
104 -591 647 0
-104 591 647 0
-104 -591 -647 0
242 648 649 0
242 -648 -649 0
-242 648 -649 0
-242 -648 649 0
650 651 652 0
650 -651 -652 0
-650 651 -652 0
-650 -651 652 0
91 428 -653 0
91 -428 653 0
-91 428 653 0
-91 -428 -653 0
654 655 -656 0
654 -655 656 0
-654 655 656 0
-654 -655 -656 0
586 626 -657 0
586 -626 657 0
-586 626 657 0
-586 -626 -657 0
658 659 660 0
658 -659 -660 0
-658 659 -660 0
-658 -659 660 0
542 661 -662 0
542 -661 662 0
-542 661 662 0
-542 -661 -662 0
663 664 665 0
663 -664 -665 0
-663 664 -665 0
-663 -664 665 0
650 666 -667 0
650 -666 667 0
-650 666 667 0
-650 -666 -667 0
559 668 -669 0
559 -668 669 0
-559 668 669 0
-559 -668 -669 0
619 670 -671 0
619 -670 671 0
-619 670 671 0
-619 -670 -671 0
663 672 673 0
663 -672 -673 0
-663 672 -673 0
-663 -672 673 0
674 675 676 0
674 -675 -676 0
-674 675 -676 0
-674 -675 676 0
661 677 678 0
661 -677 -678 0
-661 677 -678 0
-661 -677 678 0
615 679 -680 0
615 -679 680 0
-615 679 680 0
-615 -679 -680 0
592 681 -682 0
592 -681 682 0
-592 681 682 0
-592 -681 -682 0
413 683 -684 0
413 -683 684 0
-413 683 684 0
-413 -683 -684 0
685 686 -687 0
685 -686 687 0
-685 686 687 0
-685 -686 -687 0
407 688 689 0
407 -688 -689 0
-407 688 -689 0
-407 -688 689 0
690 691 692 0
690 -691 -692 0
-690 691 -692 0
-690 -691 692 0
648 693 694 0
648 -693 -694 0
-648 693 -694 0
-648 -693 694 0
204 380 -695 0
204 -380 695 0
-204 380 695 0
-204 -380 -695 0
696 697 698 0
696 -697 -698 0
-696 697 -698 0
-696 -697 698 0
699 700 -701 0
699 -700 701 0
-699 700 701 0
-699 -700 -701 0
340 448 -702 0
340 -448 702 0
-340 448 702 0
-340 -448 -702 0
29 250 348 0
29 -250 -348 0
-29 250 -348 0
-29 -250 348 0
601 703 -704 0
601 -703 704 0
-601 703 704 0
-601 -703 -704 0
705 706 707 0
705 -706 -707 0
-705 706 -707 0
-705 -706 707 0
708 709 710 0
708 -709 -710 0
-708 709 -710 0
-708 -709 710 0
643 696 -711 0
643 -696 711 0
-643 696 711 0
-643 -696 -711 0
712 713 714 0
712 -713 -714 0
-712 713 -714 0
-712 -713 714 0
581 715 -716 0
581 -715 716 0
-581 715 716 0
-581 -715 -716 0
603 717 -718 0
603 -717 718 0
-603 717 718 0
-603 -717 -718 0
719 720 -721 0
719 -720 721 0
-719 720 721 0
-719 -720 -721 0
593 722 -723 0
593 -722 723 0
-593 722 723 0
-593 -722 -723 0
17 724 725 0
17 -724 -725 0
-17 724 -725 0
-17 -724 725 0
31 726 -727 0
31 -726 727 0
-31 726 727 0
-31 -726 -727 0
728 729 -730 0
728 -729 730 0
-728 729 730 0
-728 -729 -730 0
731 732 -733 0
731 -732 733 0
-731 732 733 0
-731 -732 -733 0
44 734 735 0
44 -734 -735 0
-44 734 -735 0
-44 -734 735 0
194 736 -737 0
194 -736 737 0
-194 736 737 0
-194 -736 -737 0
738 739 740 0
738 -739 -740 0
-738 739 -740 0
-738 -739 740 0
345 464 494 0
345 -464 -494 0
-345 464 -494 0
-345 -464 494 0
741 742 743 0
741 -742 -743 0
-741 742 -743 0
-741 -742 743 0
349 553 744 0
349 -553 -744 0
-349 553 -744 0
-349 -553 744 0
745 746 -747 0
745 -746 747 0
-745 746 747 0
-745 -746 -747 0
64 577 -748 0
64 -577 748 0
-64 577 748 0
-64 -577 -748 0
749 750 -751 0
749 -750 751 0
-749 750 751 0
-749 -750 -751 0
41 305 -752 0
41 -305 752 0
-41 305 752 0
-41 -305 -752 0
728 753 -754 0
728 -753 754 0
-728 753 754 0
-728 -753 -754 0
143 755 756 0
143 -755 -756 0
-143 755 -756 0
-143 -755 756 0
757 758 759 0
757 -758 -759 0
-757 758 -759 0
-757 -758 759 0
760 761 762 0
760 -761 -762 0
-760 761 -762 0
-760 -761 762 0
719 763 764 0
719 -763 -764 0
-719 763 -764 0
-719 -763 764 0
519 765 766 0
519 -765 -766 0
-519 765 -766 0
-519 -765 766 0
767 768 -769 0
767 -768 769 0
-767 768 769 0
-767 -768 -769 0
705 770 771 0
705 -770 -771 0
-705 770 -771 0
-705 -770 771 0
772 773 774 0
772 -773 -774 0
-772 773 -774 0
-772 -773 774 0
775 776 777 0
775 -776 -777 0
-775 776 -777 0
-775 -776 777 0
151 641 778 0
151 -641 -778 0
-151 641 -778 0
-151 -641 778 0
287 755 779 0
287 -755 -779 0
-287 755 -779 0
-287 -755 779 0
544 780 -781 0
544 -780 781 0
-544 780 781 0
-544 -780 -781 0
352 534 -782 0
352 -534 782 0
-352 534 782 0
-352 -534 -782 0
594 783 784 0
594 -783 -784 0
-594 783 -784 0
-594 -783 784 0
196 495 775 0
196 -495 -775 0
-196 495 -775 0
-196 -495 775 0
483 607 785 0
483 -607 -785 0
-483 607 -785 0
-483 -607 785 0
724 786 -787 0
724 -786 787 0
-724 786 787 0
-724 -786 -787 0
788 789 -790 0
788 -789 790 0
-788 789 790 0
-788 -789 -790 0
791 792 793 0
791 -792 -793 0
-791 792 -793 0
-791 -792 793 0
794 795 -796 0
794 -795 796 0
-794 795 796 0
-794 -795 -796 0
734 776 797 0
734 -776 -797 0
-734 776 -797 0
-734 -776 797 0
438 798 799 0
438 -798 -799 0
-438 798 -799 0
-438 -798 799 0
602 800 -801 0
602 -800 801 0
-602 800 801 0
-602 -800 -801 0
546 685 -802 0
546 -685 802 0
-546 685 802 0
-546 -685 -802 0
154 187 -803 0
154 -187 803 0
-154 187 803 0
-154 -187 -803 0
197 283 804 0
197 -283 -804 0
-197 283 -804 0
-197 -283 804 0
167 481 491 0
167 -481 -491 0
-167 481 -491 0
-167 -481 491 0
548 699 805 0
548 -699 -805 0
-548 699 -805 0
-548 -699 805 0
798 806 807 0
798 -806 -807 0
-798 806 -807 0
-798 -806 807 0
556 753 808 0
556 -753 -808 0
-556 753 -808 0
-556 -753 808 0
243 247 809 0
243 -247 -809 0
-243 247 -809 0
-243 -247 809 0
535 624 810 0
535 -624 -810 0
-535 624 -810 0
-535 -624 810 0
359 811 -812 0
359 -811 812 0
-359 811 812 0
-359 -811 -812 0
360 700 813 0
360 -700 -813 0
-360 700 -813 0
-360 -700 813 0
262 322 -814 0
262 -322 814 0
-262 322 814 0
-262 -322 -814 0
498 815 816 0
498 -815 -816 0
-498 815 -816 0
-498 -815 816 0
817 818 819 0
817 -818 -819 0
-817 818 -819 0
-817 -818 819 0
397 783 -820 0
397 -783 820 0
-397 783 820 0
-397 -783 -820 0
42 611 821 0
42 -611 -821 0
-42 611 -821 0
-42 -611 821 0
741 822 823 0
741 -822 -823 0
-741 822 -823 0
-741 -822 823 0
65 84 824 0
65 -84 -824 0
-65 84 -824 0
-65 -84 824 0
131 621 825 0
131 -621 -825 0
-131 621 -825 0
-131 -621 825 0
152 526 -826 0
152 -526 826 0
-152 526 826 0
-152 -526 -826 0
735 813 -827 0
735 -813 827 0
-735 813 827 0
-735 -813 -827 0
92 609 -697 0
92 -609 697 0
-92 609 697 0
-92 -609 -697 0
420 627 828 0
420 -627 -828 0
-420 627 -828 0
-420 -627 828 0
658 829 830 0
658 -829 -830 0
-658 829 -830 0
-658 -829 830 0
220 745 -831 0
220 -745 831 0
-220 745 831 0
-220 -745 -831 0
633 695 738 0
633 -695 -738 0
-633 695 -738 0
-633 -695 738 0
295 832 -833 0
295 -832 833 0
-295 832 833 0
-295 -832 -833 0
666 834 835 0
666 -834 -835 0
-666 834 -835 0
-666 -834 835 0
318 562 836 0
318 -562 -836 0
-318 562 -836 0
-318 -562 836 0
306 837 838 0
306 -837 -838 0
-306 837 -838 0
-306 -837 838 0
839 840 -841 0
839 -840 841 0
-839 840 841 0
-839 -840 -841 0
357 842 -843 0
357 -842 843 0
-357 842 843 0
-357 -842 -843 0
570 651 763 0
570 -651 -763 0
-570 651 -763 0
-570 -651 763 0
377 720 844 0
377 -720 -844 0
-377 720 -844 0
-377 -720 844 0
215 371 845 0
215 -371 -845 0
-215 371 -845 0
-215 -371 845 0
545 703 712 0
545 -703 -712 0
-545 703 -712 0
-545 -703 712 0
168 846 -847 0
168 -846 847 0
-168 846 847 0
-168 -846 -847 0
270 848 849 0
270 -848 -849 0
-270 848 -849 0
-270 -848 849 0
850 851 852 0
850 -851 -852 0
-850 851 -852 0
-850 -851 852 0
369 576 853 0
369 -576 -853 0
-369 576 -853 0
-369 -576 853 0
170 742 -854 0
170 -742 854 0
-170 742 854 0
-170 -742 -854 0
311 855 856 0
311 -855 -856 0
-311 855 -856 0
-311 -855 856 0
61 857 -858 0
61 -857 858 0
-61 857 858 0
-61 -857 -858 0
315 817 -859 0
315 -817 859 0
-315 817 859 0
-315 -817 -859 0
739 860 -861 0
739 -860 861 0
-739 860 861 0
-739 -860 -861 0
112 492 -862 0
112 -492 862 0
-112 492 862 0
-112 -492 -862 0
839 863 -864 0
839 -863 864 0
-839 863 864 0
-839 -863 -864 0
461 850 -865 0
461 -850 865 0
-461 850 865 0
-461 -850 -865 0
105 496 866 0
105 -496 -866 0
-105 496 -866 0
-105 -496 866 0
32 649 867 0
32 -649 -867 0
-32 649 -867 0
-32 -649 867 0
429 868 869 0
429 -868 -869 0
-429 868 -869 0
-429 -868 869 0
155 713 -811 0
155 -713 811 0
-155 713 811 0
-155 -713 -811 0
316 870 -871 0
316 -870 871 0
-316 870 871 0
-316 -870 -871 0
434 551 872 0
434 -551 -872 0
-434 551 -872 0
-434 -551 872 0
765 873 -874 0
765 -873 874 0
-765 873 874 0
-765 -873 -874 0
670 875 876 0
670 -875 -876 0
-670 875 -876 0
-670 -875 876 0
423 877 -878 0
423 -877 878 0
-423 877 878 0
-423 -877 -878 0
520 879 880 0
520 -879 -880 0
-520 879 -880 0
-520 -879 880 0
564 834 -881 0
564 -834 881 0
-564 834 881 0
-564 -834 -881 0
198 778 -794 0
198 -778 794 0
-198 778 794 0
-198 -778 -794 0
176 882 -883 0
176 -882 883 0
-176 882 883 0
-176 -882 -883 0
120 207 263 0
120 -207 -263 0
-120 207 -263 0
-120 -207 263 0
822 827 884 0
822 -827 -884 0
-822 827 -884 0
-822 -827 884 0
729 885 -886 0
729 -885 886 0
-729 885 886 0
-729 -885 -886 0
730 772 887 0
730 -772 -887 0
-730 772 -887 0
-730 -772 887 0
225 888 889 0
225 -888 -889 0
-225 888 -889 0
-225 -888 889 0
803 890 -891 0
803 -890 891 0
-803 890 891 0
-803 -890 -891 0
818 873 -892 0
818 -873 892 0
-818 873 892 0
-818 -873 -892 0
459 672 -704 0
459 -672 704 0
-459 672 704 0
-459 -672 -704 0
158 893 894 0
158 -893 -894 0
-158 893 -894 0
-158 -893 894 0
895 896 897 0
895 -896 -897 0
-895 896 -897 0
-895 -896 897 0
190 668 -846 0
190 -668 846 0
-190 668 846 0
-190 -668 -846 0
888 898 -899 0
888 -898 899 0
-888 898 899 0
-888 -898 -899 0
39 900 901 0
39 -900 -901 0
-39 900 -901 0
-39 -900 901 0
514 706 -808 0
514 -706 808 0
-514 706 808 0
-514 -706 -808 0
708 902 -903 0
708 -902 903 0
-708 902 903 0
-708 -902 -903 0
149 439 -904 0
149 -439 904 0
-149 439 904 0
-149 -439 -904 0
537 905 906 0
537 -905 -906 0
-537 905 -906 0
-537 -905 906 0
386 764 907 0
386 -764 -907 0
-386 764 -907 0
-386 -764 907 0
288 679 908 0
288 -679 -908 0
-288 679 -908 0
-288 -679 908 0
59 216 909 0
59 -216 -909 0
-59 216 -909 0
-59 -216 909 0
426 636 -910 0
426 -636 910 0
-426 636 910 0
-426 -636 -910 0
911 912 913 0
911 -912 -913 0
-911 912 -913 0
-911 -912 913 0
722 875 -914 0
722 -875 914 0
-722 875 914 0
-722 -875 -914 0
88 323 -915 0
88 -323 915 0
-88 323 915 0
-88 -323 -915 0
69 460 -916 0
69 -460 916 0
-69 460 916 0
-69 -460 -916 0
387 654 -917 0
387 -654 917 0
-387 654 917 0
-387 -654 -917 0
690 918 919 0
690 -918 -919 0
-690 918 -919 0
-690 -918 919 0
482 521 920 0
482 -521 -920 0
-482 521 -920 0
-482 -521 920 0
10 921 -922 0
10 -921 922 0
-10 921 922 0
-10 -921 -922 0
923 924 -925 0
923 -924 925 0
-923 924 925 0
-923 -924 -925 0
488 815 -926 0
488 -815 926 0
-488 815 926 0
-488 -815 -926 0
725 848 -927 0
725 -848 927 0
-725 848 927 0
-725 -848 -927 0
493 928 -929 0
493 -928 929 0
-493 928 929 0
-493 -928 -929 0
290 831 930 0
290 -831 -930 0
-290 831 -930 0
-290 -831 930 0
931 932 -933 0
931 -932 933 0
-931 932 933 0
-931 -932 -933 0
934 935 936 0
934 -935 -936 0
-934 935 -936 0
-934 -935 936 0
361 524 -937 0
361 -524 937 0
-361 524 937 0
-361 -524 -937 0
881 938 939 0
881 -938 -939 0
-881 938 -939 0
-881 -938 939 0
200 212 940 0
200 -212 -940 0
-200 212 -940 0
-200 -212 940 0
97 941 942 0
97 -941 -942 0
-97 941 -942 0
-97 -941 942 0
310 943 -944 0
310 -943 944 0
-310 943 944 0
-310 -943 -944 0
136 746 -945 0
136 -746 945 0
-136 746 945 0
-136 -746 -945 0
222 528 780 0
222 -528 -780 0
-222 528 -780 0
-222 -528 780 0
865 946 947 0
865 -946 -947 0
-865 946 -947 0
-865 -946 947 0
430 851 -948 0
430 -851 948 0
-430 851 948 0
-430 -851 -948 0
707 902 911 0
707 -902 -911 0
-707 902 -911 0
-707 -902 911 0
34 949 950 0
34 -949 -950 0
-34 949 -950 0
-34 -949 950 0
497 854 905 0
497 -854 -905 0
-497 854 -905 0
-497 -854 905 0
251 392 951 0
251 -392 -951 0
-251 392 -951 0
-251 -392 951 0
952 953 954 0
952 -953 -954 0
-952 953 -954 0
-952 -953 954 0
579 955 -956 0
579 -955 956 0
-579 955 956 0
-579 -955 -956 0
432 957 -958 0
432 -957 958 0
-432 957 958 0
-432 -957 -958 0
748 959 960 0
748 -959 -960 0
-748 959 -960 0
-748 -959 960 0
110 961 -962 0
110 -961 962 0
-110 961 962 0
-110 -961 -962 0
188 829 -926 0
188 -829 926 0
-188 829 926 0
-188 -829 -926 0
963 964 965 0
963 -964 -965 0
-963 964 -965 0
-963 -964 965 0
837 966 -967 0
837 -966 967 0
-837 966 967 0
-837 -966 -967 0
863 968 969 0
863 -968 -969 0
-863 968 -969 0
-863 -968 969 0
664 970 -971 0
664 -970 971 0
-664 970 971 0
-664 -970 -971 0
153 179 -972 0
153 -179 972 0
-153 179 972 0
-153 -179 -972 0
22 258 421 0
22 -258 -421 0
-22 258 -421 0
-22 -258 421 0
785 973 974 0
785 -973 -974 0
-785 973 -974 0
-785 -973 974 0
504 631 975 0
504 -631 -975 0
-504 631 -975 0
-504 -631 975 0
731 957 -976 0
731 -957 976 0
-731 957 976 0
-731 -957 -976 0
280 977 -978 0
280 -977 978 0
-280 977 978 0
-280 -977 -978 0
375 979 -980 0
375 -979 980 0
-375 979 980 0
-375 -979 -980 0
877 952 -981 0
877 -952 981 0
-877 952 981 0
-877 -952 -981 0
749 804 982 0
749 -804 -982 0
-749 804 -982 0
-749 -804 982 0
835 890 -983 0
835 -890 983 0
-835 890 983 0
-835 -890 -983 0
982 984 985 0
982 -984 -985 0
-982 984 -985 0
-982 -984 985 0
900 970 986 0
900 -970 -986 0
-900 970 -986 0
-900 -970 986 0
800 975 -987 0
800 -975 987 0
-800 975 987 0
-800 -975 -987 0
587 589 988 0
587 -589 -988 0
-587 589 -988 0
-587 -589 988 0
383 938 989 0
383 -938 -989 0
-383 938 -989 0
-383 -938 989 0
476 990 991 0
476 -990 -991 0
-476 990 -991 0
-476 -990 991 0
992 993 -994 0
992 -993 994 0
-992 993 994 0
-992 -993 -994 0
46 859 -995 0
46 -859 995 0
-46 859 995 0
-46 -859 -995 0
471 732 937 0
471 -732 -937 0
-471 732 -937 0
-471 -732 937 0
473 996 -997 0
473 -996 997 0
-473 996 997 0
-473 -996 -997 0
620 963 -998 0
620 -963 998 0
-620 963 998 0
-620 -963 -998 0
259 995 -999 0
259 -995 999 0
-259 995 999 0
-259 -995 -999 0
531 1000 -1001 0
531 -1000 1001 0
-531 1000 1001 0
-531 -1000 -1001 0
127 578 -715 0
127 -578 715 0
-127 578 715 0
-127 -578 -715 0
402 1002 1003 0
402 -1002 -1003 0
-402 1002 -1003 0
-402 -1002 1003 0
529 923 1004 0
529 -923 -1004 0
-529 923 -1004 0
-529 -923 1004 0
393 961 -1005 0
393 -961 1005 0
-393 961 1005 0
-393 -961 -1005 0
21 515 -1006 0
21 -515 1006 0
-21 515 1006 0
-21 -515 -1006 0
95 941 1007 0
95 -941 -1007 0
-95 941 -1007 0
-95 -941 1007 0
111 934 -1008 0
111 -934 1008 0
-111 934 1008 0
-111 -934 -1008 0
806 1009 1010 0
806 -1009 -1010 0
-806 1009 -1010 0
-806 -1009 1010 0
417 986 1011 0
417 -986 -1011 0
-417 986 -1011 0
-417 -986 1011 0
73 744 -912 0
73 -744 912 0
-73 744 912 0
-73 -744 -912 0
489 770 -1012 0
489 -770 1012 0
-489 770 1012 0
-489 -770 -1012 0
1013 1014 -1015 0
1013 -1014 1015 0
-1013 1014 1015 0
-1013 -1014 -1015 0
268 964 1016 0
268 -964 -1016 0
-268 964 -1016 0
-268 -964 1016 0
47 121 -1017 0
47 -121 1017 0
-47 121 1017 0
-47 -121 -1017 0
490 522 -1018 0
490 -522 1018 0
-490 522 1018 0
-490 -522 -1018 0
565 918 1019 0
565 -918 -1019 0
-565 918 -1019 0
-565 -918 1019 0
836 955 989 0
836 -955 -989 0
-836 955 -989 0
-836 -955 989 0
885 1020 1021 0
885 -1020 -1021 0
-885 1020 -1021 0
-885 -1020 1021 0
782 1022 -1023 0
782 -1022 1023 0
-782 1022 1023 0
-782 -1022 -1023 0
532 640 1024 0
532 -640 -1024 0
-532 640 -1024 0
-532 -640 1024 0
195 688 -1025 0
195 -688 1025 0
-195 688 1025 0
-195 -688 -1025 0
709 1026 1027 0
709 -1026 -1027 0
-709 1026 -1027 0
-709 -1026 1027 0
1028 1029 -1030 0
1028 -1029 1030 0
-1028 1029 1030 0
-1028 -1029 -1030 0
374 533 -1031 0
374 -533 1031 0
-374 533 1031 0
-374 -533 -1031 0
802 983 1032 0
802 -983 -1032 0
-802 983 -1032 0
-802 -983 1032 0
1033 1034 -1035 0
1033 -1034 1035 0
-1033 1034 1035 0
-1033 -1034 -1035 0
223 917 1036 0
223 -917 -1036 0
-223 917 -1036 0
-223 -917 1036 0
324 1012 -1037 0
324 -1012 1037 0
-324 1012 1037 0
-324 -1012 -1037 0
234 1038 1039 0
234 -1038 -1039 0
-234 1038 -1039 0
-234 -1038 1039 0
246 346 -1040 0
246 -346 1040 0
-246 346 1040 0
-246 -346 -1040 0
238 363 -910 0
238 -363 910 0
-238 363 910 0
-238 -363 -910 0
26 1041 1042 0
26 -1041 -1042 0
-26 1041 -1042 0
-26 -1041 1042 0
634 791 1020 0
634 -791 -1020 0
-634 791 -1020 0
-634 -791 1020 0
366 971 -1043 0
366 -971 1043 0
-366 971 1043 0
-366 -971 -1043 0
137 205 1033 0
137 -205 -1033 0
-137 205 -1033 0
-137 -205 1033 0
828 931 1044 0
828 -931 -1044 0
-828 931 -1044 0
-828 -931 1044 0
281 508 1004 0
281 -508 -1004 0
-281 508 -1004 0
-281 -508 1004 0
625 747 -1045 0
625 -747 1045 0
-625 747 1045 0
-625 -747 -1045 0
133 616 840 0
133 -616 -840 0
-133 616 -840 0
-133 -616 840 0
677 1046 -1047 0
677 -1046 1047 0
-677 1046 1047 0
-677 -1046 -1047 0
296 973 1048 0
296 -973 -1048 0
-296 973 -1048 0
-296 -973 1048 0
832 974 1049 0
832 -974 -1049 0
-832 974 -1049 0
-832 -974 1049 0
229 582 -1028 0
229 -582 1028 0
-229 582 1028 0
-229 -582 -1028 0
350 512 -701 0
350 -512 701 0
-350 512 701 0
-350 -512 -701 0
754 757 1050 0
754 -757 -1050 0
-754 757 -1050 0
-754 -757 1050 0
414 510 860 0
414 -510 -860 0
-414 510 -860 0
-414 -510 860 0
608 844 946 0
608 -844 -946 0
-608 844 -946 0
-608 -844 946 0
566 810 -1051 0
566 -810 1051 0
-566 810 1051 0
-566 -810 -1051 0
784 1041 -1052 0
784 -1041 1052 0
-784 1041 1052 0
-784 -1041 -1052 0
674 901 -1002 0
674 -901 1002 0
-674 901 1002 0
-674 -901 -1002 0
78 1053 1054 0
78 -1053 -1054 0
-78 1053 -1054 0
-78 -1053 1054 0
211 1017 -1055 0
211 -1017 1055 0
-211 1017 1055 0
-211 -1017 -1055 0
226 906 1056 0
226 -906 -1056 0
-226 906 -1056 0
-226 -906 1056 0
298 841 -990 0
298 -841 990 0
-298 841 990 0
-298 -841 -990 0
451 457 1057 0
451 -457 -1057 0
-451 457 -1057 0
-451 -457 1057 0
1058 1059 1060 0
1058 -1059 -1060 0
-1058 1059 -1060 0
-1058 -1059 1060 0
147 554 -652 0
147 -554 652 0
-147 554 652 0
-147 -554 -652 0
138 1021 -1051 0
138 -1021 1051 0
-138 1021 1051 0
-138 -1021 -1051 0
632 1061 1062 0
632 -1061 -1062 0
-632 1061 -1062 0
-632 -1061 1062 0
128 1063 1064 0
128 -1063 -1064 0
-128 1063 -1064 0
-128 -1063 1064 0
23 320 -788 0
23 -320 788 0
-23 320 788 0
-23 -320 -788 0
750 1065 -1066 0
750 -1065 1066 0
-750 1065 1066 0
-750 -1065 -1066 0
795 1067 -1068 0
795 -1067 1068 0
-795 1067 1068 0
-795 -1067 -1068 0
1069 1070 -1071 0
1069 -1070 1071 0
-1069 1070 1071 0
-1069 -1070 -1071 0
45 301 942 0
45 -301 -942 0
-45 301 -942 0
-45 -301 942 0
248 552 -758 0
248 -552 758 0
-248 552 758 0
-248 -552 -758 0
792 1016 1048 0
792 -1016 -1048 0
-792 1016 -1048 0
-792 -1016 1048 0
415 1072 1073 0
415 -1072 -1073 0
-415 1072 -1073 0
-415 -1072 1073 0
751 1074 -1075 0
751 -1074 1075 0
-751 1074 1075 0
-751 -1074 -1075 0
384 680 -1076 0
384 -680 1076 0
-384 680 1076 0
-384 -680 -1076 0
134 446 -1077 0
134 -446 1077 0
-134 446 1077 0
-134 -446 -1077 0
217 462 977 0
217 -462 -977 0
-217 462 -977 0
-217 -462 977 0
180 1078 1079 0
180 -1078 -1079 0
-180 1078 -1079 0
-180 -1078 1079 0
408 898 -1080 0
408 -898 1080 0
-408 898 1080 0
-408 -898 -1080 0
501 956 -1081 0
501 -956 1081 0
-501 956 1081 0
-501 -956 -1081 0
992 1082 1083 0
992 -1082 -1083 0
-992 1082 -1083 0
-992 -1082 1083 0
1011 1084 -1085 0
1011 -1084 1085 0
-1011 1084 1085 0
-1011 -1084 -1085 0
191 1038 -1086 0
191 -1038 1086 0
-191 1038 1086 0
-191 -1038 -1086 0
702 752 862 0
702 -752 -862 0
-702 752 -862 0
-702 -752 862 0
435 645 -1087 0
435 -645 1087 0
-435 645 1087 0
-435 -645 -1087 0
637 1078 -1088 0
637 -1078 1088 0
-637 1078 1088 0
-637 -1078 -1088 0
331 819 1069 0
331 -819 -1069 0
-331 819 -1069 0
-331 -819 1069 0
984 1065 1089 0
984 -1065 -1089 0
-984 1065 -1089 0
-984 -1065 1089 0
857 1076 -1090 0
857 -1076 1090 0
-857 1076 1090 0
-857 -1076 -1090 0
1074 1091 1092 0
1074 -1091 -1092 0
-1074 1091 -1092 0
-1074 -1091 1092 0
312 509 -1093 0
312 -509 1093 0
-312 509 1093 0
-312 -509 -1093 0
140 208 799 0
140 -208 -799 0
-140 208 -799 0
-140 -208 799 0
113 879 1094 0
113 -879 -1094 0
-113 879 -1094 0
-113 -879 1094 0
543 686 1095 0
543 -686 -1095 0
-543 686 -1095 0
-543 -686 1095 0
1096 1097 1098 0
1096 -1097 -1098 0
-1096 1097 -1098 0
-1096 -1097 1098 0
976 1081 -1099 0
976 -1081 1099 0
-976 1081 1099 0
-976 -1081 -1099 0
132 1100 1101 0
132 -1100 -1101 0
-132 1100 -1101 0
-132 -1100 1101 0
717 1046 1102 0
717 -1046 -1102 0
-717 1046 -1102 0
-717 -1046 1102 0
221 622 -1103 0
221 -622 1103 0
-221 622 1103 0
-221 -622 -1103 0
698 1104 1105 0
698 -1104 -1105 0
-698 1104 -1105 0
-698 -1104 1105 0
477 886 -1091 0
477 -886 1091 0
-477 886 1091 0
-477 -886 -1091 0
282 628 1106 0
282 -628 -1106 0
-282 628 -1106 0
-282 -628 1106 0
903 935 1107 0
903 -935 -1107 0
-903 935 -1107 0
-903 -935 1107 0
505 924 1108 0
505 -924 -1108 0
-505 924 -1108 0
-505 -924 1108 0
341 801 -1109 0
341 -801 1109 0
-341 801 1109 0
-341 -801 -1109 0
252 1082 -1110 0
252 -1082 1110 0
-252 1082 1110 0
-252 -1082 -1110 0
932 1096 1111 0
932 -1096 -1111 0
-932 1096 -1111 0
-932 -1096 1111 0
507 655 1112 0
507 -655 -1112 0
-507 655 -1112 0
-507 -655 1112 0
588 613 -996 0
588 -613 996 0
-588 613 996 0
-588 -613 -996 0
882 959 -1113 0
882 -959 1113 0
-882 959 1113 0
-882 -959 -1113 0
440 1025 -1114 0
440 -1025 1114 0
-440 1025 1114 0
-440 -1025 -1114 0
1029 1115 1116 0
1029 -1115 -1116 0
-1029 1115 -1116 0
-1029 -1115 1116 0
646 1006 1075 0
646 -1006 -1075 0
-646 1006 -1075 0
-646 -1006 1075 0
86 304 895 0
86 -304 -895 0
-86 304 -895 0
-86 -304 895 0
807 1117 -1118 0
807 -1117 1118 0
-807 1117 1118 0
-807 -1117 -1118 0
48 276 -1119 0
48 -276 1119 0
-48 276 1119 0
-48 -276 -1119 0
107 1120 1121 0
107 -1120 -1121 0
-107 1120 -1121 0
-107 -1120 1121 0
939 1013 1122 0
939 -1013 -1122 0
-939 1013 -1122 0
-939 -1013 1122 0
968 1061 1113 0
968 -1061 -1113 0
-968 1061 -1113 0
-968 -1061 1113 0
185 547 691 0
185 -547 -691 0
-185 547 -691 0
-185 -547 691 0
333 736 1123 0
333 -736 -1123 0
-333 736 -1123 0
-333 -736 1123 0
1062 1124 -1125 0
1062 -1124 1125 0
-1062 1124 1125 0
-1062 -1124 -1125 0
11 231 334 0
11 -231 -334 0
-11 231 -334 0
-11 -231 334 0
951 1126 -1127 0
951 -1126 1127 0
-951 1126 1127 0
-951 -1126 -1127 0
555 560 -1107 0
555 -560 1107 0
-555 560 1107 0
-555 -560 -1107 0
767 1042 1128 0
767 -1042 -1128 0
-767 1042 -1128 0
-767 -1042 1128 0
101 344 -1100 0
101 -344 1100 0
-101 344 1100 0
-101 -344 -1100 0
192 1014 1129 0
192 -1014 -1129 0
-192 1014 -1129 0
-192 -1014 1129 0
15 89 -1130 0
15 -89 1130 0
-15 89 1130 0
-15 -89 -1130 0
855 914 -1093 0
855 -914 1093 0
-855 914 1093 0
-855 -914 -1093 0
583 681 1131 0
583 -681 -1131 0
-583 681 -1131 0
-583 -681 1131 0
773 919 1132 0
773 -919 -1132 0
-773 919 -1132 0
-773 -919 1132 0
878 928 -1003 0
878 -928 1003 0
-878 928 1003 0
-878 -928 -1003 0
541 1099 1133 0
541 -1099 -1133 0
-541 1099 -1133 0
-541 -1099 1133 0
969 1134 1135 0
969 -1134 -1135 0
-969 1134 -1135 0
-969 -1134 1135 0
18 759 1047 0
18 -759 -1047 0
-18 759 -1047 0
-18 -759 1047 0
156 390 572 0
156 -390 -572 0
-156 390 -572 0
-156 -390 572 0
1052 1136 -1137 0
1052 -1136 1137 0
-1052 1136 1137 0
-1052 -1136 -1137 0
385 418 858 0
385 -418 -858 0
-385 418 -858 0
-385 -418 858 0
847 1031 -1138 0
847 -1031 1138 0
-847 1031 1138 0
-847 -1031 -1138 0
74 98 -1139 0
74 -98 1139 0
-74 98 1139 0
-74 -98 -1139 0
953 1040 1070 0
953 -1040 -1070 0
-953 1040 -1070 0
-953 -1040 1070 0
486 563 1140 0
486 -563 -1140 0
-486 563 -1140 0
-486 -563 1140 0
203 400 -1136 0
203 -400 1136 0
-203 400 1136 0
-203 -400 -1136 0
307 797 1141 0
307 -797 -1141 0
-307 797 -1141 0
-307 -797 1141 0
452 849 -1142 0
452 -849 1142 0
-452 849 1142 0
-452 -849 -1142 0
455 678 -1110 0
455 -678 1110 0
-455 678 1110 0
-455 -678 -1110 0
90 347 484 0
90 -347 -484 0
-90 347 -484 0
-90 -347 484 0
177 853 1143 0
177 -853 -1143 0
-177 853 -1143 0
-177 -853 1143 0
293 662 1144 0
293 -662 -1144 0
-293 662 -1144 0
-293 -662 1144 0
319 927 -949 0
319 -927 949 0
-319 927 949 0
-319 -927 -949 0
1119 1129 -1145 0
1119 -1129 1145 0
-1119 1129 1145 0
-1119 -1129 -1145 0
659 682 1146 0
659 -682 -1146 0
-659 682 -1146 0
-659 -682 1146 0
150 943 -1131 0
150 -943 1131 0
-150 943 1131 0
-150 -943 -1131 0
1147 1148 -1149 0
1147 -1148 1149 0
-1147 1148 1149 0
-1147 -1148 -1149 0
499 883 -1057 0
499 -883 1057 0
-499 883 1057 0
-499 -883 -1057 0
516 760 1150 0
516 -760 -1150 0
-516 760 -1150 0
-516 -760 1150 0
378 605 -1151 0
378 -605 1151 0
-378 605 1151 0
-378 -605 -1151 0
606 1097 -1152 0
606 -1097 1152 0
-606 1097 1152 0
-606 -1097 -1152 0
424 789 -1128 0
424 -789 1128 0
-424 789 1128 0
-424 -789 -1128 0
174 1037 1153 0
174 -1037 -1153 0
-174 1037 -1153 0
-174 -1037 1153 0
405 673 972 0
405 -673 -972 0
-405 673 -972 0
-405 -673 972 0
412 908 -1154 0
412 -908 1154 0
-412 908 1154 0
-412 -908 -1154 0
353 1026 1155 0
353 -1026 -1155 0
-353 1026 -1155 0
-353 -1026 1155 0
1104 1156 -1157 0
1104 -1156 1157 0
-1104 1156 1157 0
-1104 -1156 -1157 0
540 945 1111 0
540 -945 -1111 0
-540 945 -1111 0
-540 -945 1111 0
629 1158 -1159 0
629 -1158 1159 0
-629 1158 1159 0
-629 -1158 -1159 0
284 771 1145 0
284 -771 -1145 0
-284 771 -1145 0
-284 -771 1145 0
403 1140 1160 0
403 -1140 -1160 0
-403 1140 -1160 0
-403 -1140 1160 0
539 1161 1162 0
539 -1161 -1162 0
-539 1161 -1162 0
-539 -1161 1162 0
33 880 -1163 0
33 -880 1163 0
-33 880 1163 0
-33 -880 -1163 0
164 253 -954 0
164 -253 954 0
-164 253 954 0
-164 -253 -954 0
96 761 1164 0
96 -761 -1164 0
-96 761 -1164 0
-96 -761 1164 0
62 740 1117 0
62 -740 -1117 0
-62 740 -1117 0
-62 -740 1117 0
235 1072 -1088 0
235 -1072 1088 0
-235 1072 1088 0
-235 -1072 -1088 0
1083 1165 1166 0
1083 -1165 -1166 0
-1083 1165 -1166 0
-1083 -1165 1166 0
273 1086 -1161 0
273 -1086 1161 0
-273 1086 1161 0
-273 -1086 -1161 0
502 1147 1167 0
502 -1147 -1167 0
-502 1147 -1167 0
-502 -1147 1167 0
600 693 -1168 0
600 -693 1168 0
-600 693 1168 0
-600 -693 -1168 0
1043 1169 -1170 0
1043 -1169 1170 0
-1043 1169 1170 0
-1043 -1169 -1170 0
394 396 -874 0
394 -396 874 0
-394 396 874 0
-394 -396 -874 0
1058 1171 1172 0
1058 -1171 -1172 0
-1058 1171 -1172 0
-1058 -1171 1172 0
623 644 1173 0
623 -644 -1173 0
-623 644 -1173 0
-623 -644 1173 0
647 790 867 0
647 -790 -867 0
-647 790 -867 0
-647 -790 867 0
102 1162 -1174 0
102 -1162 1174 0
-102 1162 1174 0
-102 -1162 -1174 0
175 1063 -1175 0
175 -1063 1175 0
-175 1063 1175 0
-175 -1063 -1175 0
638 868 1138 0
638 -868 -1138 0
-638 868 -1138 0
-638 -868 1138 0
5 35 657 0
5 -35 -657 0
-5 35 -657 0
-5 -35 657 0
870 907 -998 0
870 -907 998 0
-870 907 998 0
-870 -907 -998 0
125 485 -796 0
125 -485 796 0
-125 485 796 0
-125 -485 -796 0
812 892 -962 0
812 -892 962 0
-812 892 962 0
-812 -892 -962 0
240 557 -1176 0
240 -557 1176 0
-240 557 1176 0
-240 -557 -1176 0
921 1034 -1139 0
921 -1034 1139 0
-921 1034 1139 0
-921 -1034 -1139 0
597 1080 -1114 0
597 -1080 1114 0
-597 1080 1114 0
-597 -1080 -1114 0
213 1067 1177 0
213 -1067 -1177 0
-213 1067 -1177 0
-213 -1067 1177 0
336 511 869 0
336 -511 -869 0
-336 511 -869 0
-336 -511 869 0
500 940 1077 0
500 -940 -1077 0
-500 940 -1077 0
-500 -940 1077 0
1008 1053 1071 0
1008 -1053 -1071 0
-1008 1053 -1071 0
-1008 -1053 1071 0
422 656 1178 0
422 -656 -1178 0
-422 656 -1178 0
-422 -656 1178 0
80 329 1179 0
80 -329 -1179 0
-80 329 -1179 0
-80 -329 1179 0
845 925 -1115 0
845 -925 1115 0
-845 925 1115 0
-845 -925 -1115 0
692 1156 1180 0
692 -1156 -1180 0
-692 1156 -1180 0
-692 -1156 1180 0
513 726 872 0
513 -726 -872 0
-513 726 -872 0
-513 -726 872 0
388 1116 -1168 0
388 -1116 1168 0
-388 1116 1168 0
-388 -1116 -1168 0
614 733 -1169 0
614 -733 1169 0
-614 733 1169 0
-614 -733 -1169 0
988 1007 1181 0
988 -1007 -1181 0
-988 1007 -1181 0
-988 -1007 1181 0
617 978 -1112 0
617 -978 1112 0
-617 978 1112 0
-617 -978 -1112 0
50 260 922 0
50 -260 -922 0
-50 260 -922 0
-50 -260 922 0
326 1049 1182 0
326 -1049 -1182 0
-326 1049 -1182 0
-326 -1049 1182 0
6 57 -358 0
6 -57 358 0
-6 57 358 0
-6 -57 -358 0
762 1179 1183 0
762 -1179 -1183 0
-762 1179 -1183 0
-762 -1179 1183 0
189 567 -1152 0
189 -567 1152 0
-189 567 1152 0
-189 -567 -1152 0
716 965 1118 0
716 -965 -1118 0
-716 965 -1118 0
-716 -965 1118 0
24 274 -979 0
24 -274 979 0
-24 274 979 0
-24 -274 -979 0
362 517 781 0
362 -517 -781 0
-362 517 -781 0
-362 -517 781 0
232 1009 1133 0
232 -1009 -1133 0
-232 1009 -1133 0
-232 -1009 1133 0
453 669 -896 0
453 -669 896 0
-453 669 896 0
-453 -669 -896 0
30 332 1050 0
30 -332 -1050 0
-30 332 -1050 0
-30 -332 1050 0
635 687 -793 0
635 -687 793 0
-635 687 793 0
-635 -687 -793 0
406 506 1010 0
406 -506 -1010 0
-406 506 -1010 0
-406 -506 1010 0
999 1102 1184 0
999 -1102 -1184 0
-999 1102 -1184 0
-999 -1102 1184 0
285 675 -893 0
285 -675 893 0
-285 675 893 0
-285 -675 -893 0
947 958 1183 0
947 -958 -1183 0
-947 958 -1183 0
-947 -958 1183 0
604 683 -1059 0
604 -683 1059 0
-604 683 1059 0
-604 -683 -1059 0
948 1000 1073 0
948 -1000 -1073 0
-948 1000 -1073 0
-948 -1000 1073 0
449 711 -1158 0
449 -711 1158 0
-449 711 1158 0
-449 -711 -1158 0
718 1092 1141 0
718 -1092 -1141 0
-718 1092 -1141 0
-718 -1092 1141 0
861 1109 -1185 0
861 -1109 1185 0
-861 1109 1185 0
-861 -1109 -1185 0
1101 1143 1151 0
1101 -1143 -1151 0
-1101 1143 -1151 0
-1101 -1143 1151 0
321 727 -1060 0
321 -727 1060 0
-321 727 1060 0
-321 -727 -1060 0
573 824 913 0
573 -824 -913 0
-573 824 -913 0
-573 -824 913 0
71 465 1177 0
71 -465 -1177 0
-71 465 -1177 0
-71 -465 1177 0
114 233 1165 0
114 -233 -1165 0
-114 233 -1165 0
-114 -233 1165 0
1171 1186 -1187 0
1171 -1186 1187 0
-1171 1186 1187 0
-1171 -1186 -1187 0
66 756 -768 0
66 -756 768 0
-66 756 768 0
-66 -756 -768 0
416 852 -980 0
416 -852 980 0
-416 852 980 0
-416 -852 -980 0
466 1055 1155 0
466 -1055 -1155 0
-466 1055 -1155 0
-466 -1055 1155 0
365 1146 1188 0
365 -1146 -1188 0
-365 1146 -1188 0
-365 -1146 1188 0
8 339 -1134 0
8 -339 1134 0
-8 339 1134 0
-8 -339 -1134 0
549 1044 -1144 0
549 -1044 1144 0
-549 1044 1144 0
-549 -1044 -1144 0
667 1030 -1189 0
667 -1030 1189 0
-667 1030 1189 0
-667 -1030 -1189 0
81 816 -1190 0
81 -816 1190 0
-81 816 1190 0
-81 -816 -1190 0
653 1022 1032 0
653 -1022 -1032 0
-653 1022 -1032 0
-653 -1022 1032 0
135 595 -1191 0
135 -595 1191 0
-135 595 1191 0
-135 -595 -1191 0
249 327 774 0
249 -327 -774 0
-249 327 -774 0
-249 -327 774 0
381 1153 -1192 0
381 -1153 1192 0
-381 1153 1192 0
-381 -1153 -1192 0
809 950 -1193 0
809 -950 1193 0
-809 950 1193 0
-809 -950 -1193 0
599 993 1068 0
599 -993 -1068 0
-599 993 -1068 0
-599 -993 1068 0
1084 1160 -1186 0
1084 -1160 1186 0
-1084 1160 1186 0
-1084 -1160 -1186 0
821 1045 1194 0
821 -1045 -1194 0
-821 1045 -1194 0
-821 -1045 1194 0
186 916 -1024 0
186 -916 1024 0
-186 916 1024 0
-186 -916 -1024 0
694 823 991 0
694 -823 -991 0
-694 823 -991 0
-694 -823 991 0
584 1126 -1175 0
584 -1126 1175 0
-584 1126 1175 0
-584 -1126 -1175 0
266 1142 -1192 0
266 -1142 1192 0
-266 1142 1192 0
-266 -1142 -1192 0
447 966 -1036 0
447 -966 1036 0
-447 966 1036 0
-447 -966 -1036 0
920 1018 -1189 0
920 -1018 1189 0
-920 1018 1189 0
-920 -1018 -1189 0
87 122 574 0
87 -122 -574 0
-87 122 -574 0
-87 -122 574 0
129 642 -1172 0
129 -642 1172 0
-129 642 1172 0
-129 -642 -1172 0
254 1122 -1195 0
254 -1122 1195 0
-254 1122 1195 0
-254 -1122 -1195 0
671 723 -786 0
671 -723 786 0
-671 723 786 0
-671 -723 -786 0
60 1066 1120 0
60 -1066 -1120 0
-60 1066 -1120 0
-60 -1066 1120 0
75 891 -1039 0
75 -891 1039 0
-75 891 1039 0
-75 -891 -1039 0
450 814 1196 0
450 -814 -1196 0
-450 814 -1196 0
-450 -814 1196 0
379 639 944 0
379 -639 -944 0
-379 639 -944 0
-379 -639 944 0
51 936 -1181 0
51 -936 1181 0
-51 936 1181 0
-51 -936 -1181 0
126 994 -1194 0
126 -994 1194 0
-126 994 1194 0
-126 -994 -1194 0
409 1094 -1178 0
409 -1094 1178 0
-409 1094 1178 0
-409 -1094 -1178 0
63 364 830 0
63 -364 -830 0
-63 364 -830 0
-63 -364 830 0
255 1095 -1154 0
255 -1095 1154 0
-255 1095 1154 0
-255 -1095 -1154 0
372 527 710 0
372 -527 -710 0
-372 527 -710 0
-372 -527 710 0
230 930 981 0
230 -930 -981 0
-230 930 -981 0
-230 -930 981 0
313 1137 1197 0
313 -1137 -1197 0
-313 1137 -1197 0
-313 -1137 1197 0
538 660 1124 0
538 -660 -1124 0
-538 660 -1124 0
-538 -660 1124 0
36 665 -787 0
36 -665 787 0
-36 665 787 0
-36 -665 -787 0
864 1125 1184 0
864 -1125 -1184 0
-864 1125 -1184 0
-864 -1125 1184 0
99 1005 1187 0
99 -1005 -1187 0
-99 1005 -1187 0
-99 -1005 1187 0
271 585 1150 0
271 -585 -1150 0
-271 585 -1150 0
-271 -585 1150 0
227 856 -1166 0
227 -856 1166 0
-227 856 1166 0
-227 -856 -1166 0
436 1090 -1198 0
436 -1090 1198 0
-436 1090 1198 0
-436 -1090 -1198 0
367 630 894 0
367 -630 -894 0
-367 630 -894 0
-367 -630 894 0
123 997 1089 0
123 -997 -1089 0
-123 997 -1089 0
-123 -997 1089 0
714 1079 -1159 0
714 -1079 1159 0
-714 1079 1159 0
-714 -1079 -1159 0
842 866 -915 0
842 -866 915 0
-842 866 915 0
-842 -866 -915 0
12 1064 -1130 0
12 -1064 1130 0
-12 1064 1130 0
-12 -1064 -1130 0
478 558 684 0
478 -558 -684 0
-478 558 -684 0
-478 -558 684 0
236 239 -825 0
236 -239 825 0
-236 239 825 0
-236 -239 -825 0
737 1103 -1106 0
737 -1103 1106 0
-737 1103 1106 0
-737 -1103 -1106 0
171 909 -967 0
171 -909 967 0
-171 909 967 0
-171 -909 -967 0
884 933 -1023 0
884 -933 1023 0
-884 933 1023 0
-884 -933 -1023 0
743 826 -960 0
743 -826 960 0
-743 826 960 0
-743 -826 -960 0
676 929 1182 0
676 -929 -1182 0
-676 929 -1182 0
-676 -929 1182 0
72 1019 1188 0
72 -1019 -1188 0
-72 1019 -1188 0
-72 -1019 1188 0
777 1015 -1174 0
777 -1015 1174 0
-777 1015 1174 0
-777 -1015 -1174 0
183 843 899 0
183 -843 -899 0
-183 843 -899 0
-183 -843 899 0
525 1056 1148 0
525 -1056 -1148 0
-525 1056 -1148 0
-525 -1056 1148 0
571 1001 1199 0
571 -1001 -1199 0
-571 1001 -1199 0
-571 -1001 1199 0
395 1127 -1135 0
395 -1127 1135 0
-395 1127 1135 0
-395 -1127 -1135 0
769 889 -1164 0
769 -889 1164 0
-769 889 1164 0
-769 -889 -1164 0
93 530 689 0
93 -530 -689 0
-93 530 -689 0
-93 -530 689 0
173 876 -1108 0
173 -876 1108 0
-173 876 1108 0
-173 -876 -1108 0
721 779 -1054 0
721 -779 1054 0
-721 779 1054 0
-721 -779 -1054 0
820 1132 1195 0
820 -1132 -1195 0
-820 1132 -1195 0
-820 -1132 1195 0
269 355 -1185 0
269 -355 1185 0
-269 355 1185 0
-269 -355 -1185 0
141 472 -904 0
141 -472 904 0
-141 472 904 0
-141 -472 -904 0
463 887 1191 0
463 -887 -1191 0
-463 887 -1191 0
-463 -887 1191 0
279 805 1105 0
279 -805 -1105 0
-279 805 -1105 0
-279 -805 1105 0
1087 1149 -1163 0
1087 -1149 1163 0
-1087 1149 1163 0
-1087 -1149 -1163 0
398 503 -1198 0
398 -503 1198 0
-398 503 1198 0
-398 -503 -1198 0
159 1121 1167 0
159 -1121 -1167 0
-159 1121 -1167 0
-159 -1121 1167 0
201 580 -897 0
201 -580 897 0
-201 580 897 0
-201 -580 -897 0
838 985 -1027 0
838 -985 1027 0
-838 985 1027 0
-838 -985 -1027 0
427 610 618 0
427 -610 -618 0
-427 610 -618 0
-427 -610 618 0
468 479 766 0
468 -479 -766 0
-468 479 -766 0
-468 -479 766 0
487 1190 -1193 0
487 -1190 1193 0
-487 1190 1193 0
-487 -1190 -1193 0
144 458 -1123 0
144 -458 1123 0
-144 458 1123 0
-144 -458 -1123 0
1085 1170 -1200 0
1085 -1170 1200 0
-1085 1170 1200 0
-1085 -1170 -1200 0
9 469 987 0
9 -469 -987 0
-9 469 -987 0
-9 -469 987 0
108 437 -871 0
108 -437 871 0
-108 437 871 0
-108 -437 -871 0
224 257 -1035 0
224 -257 1035 0
-224 257 1035 0
-224 -257 -1035 0
382 590 -1180 0
382 -590 1180 0
-382 590 1180 0
-382 -590 -1180 0
3 117 1200 0
3 -117 -1200 0
-3 117 -1200 0
-3 -117 1200 0
214 1176 1199 0
214 -1176 -1199 0
-214 1176 -1199 0
-214 -1176 1199 0
391 561 833 0
391 -561 -833 0
-391 561 -833 0
-391 -561 833 0
1173 1196 1197 0
1173 -1196 -1197 0
-1173 1196 -1197 0
-1173 -1196 1197 0
165 1098 -1157 0
165 -1098 1157 0
-165 1098 1157 0
-165 -1098 -1157 0
27 291 433 0
27 -291 -433 0
-27 291 -433 0
-27 -291 433 0
