c description: Tseitin formula on random 3-regular graph on 1000 verices, with odd charge
c generator: CNFgen (0.9.6)
c copyright: (C) 2012-2026 Massimo Lauria <massimo.lauria@uniroma1.it>
c url: https://massimolauria.net/cnfgen
c command line: cnfgen tseitin 1000 3
c
p cnf 1500 4000
1 2 -3 0
1 -2 3 0
-1 2 3 0
-1 -2 -3 0
4 5 6 0
4 -5 -6 0
-4 5 -6 0
-4 -5 6 0
7 8 9 0
7 -8 -9 0
-7 8 -9 0
-7 -8 9 0
10 11 -12 0
10 -11 12 0
-10 11 12 0
-10 -11 -12 0
13 14 15 0
13 -14 -15 0
-13 14 -15 0
-13 -14 15 0
16 17 18 0
16 -17 -18 0
-16 17 -18 0
-16 -17 18 0
19 20 -21 0
19 -20 21 0
-19 20 21 0
-19 -20 -21 0
22 23 -24 0
22 -23 24 0
-22 23 24 0
-22 -23 -24 0
25 26 27 0
25 -26 -27 0
-25 26 -27 0
-25 -26 27 0
28 29 -30 0
28 -29 30 0
-28 29 30 0
-28 -29 -30 0
31 32 33 0
31 -32 -33 0
-31 32 -33 0
-31 -32 33 0
34 35 36 0
34 -35 -36 0
-34 35 -36 0
-34 -35 36 0
37 38 39 0
37 -38 -39 0
-37 38 -39 0
-37 -38 39 0
40 41 -42 0
40 -41 42 0
-40 41 42 0
-40 -41 -42 0
43 44 -45 0
43 -44 45 0
-43 44 45 0
-43 -44 -45 0
46 47 -48 0
46 -47 48 0
-46 47 48 0
-46 -47 -48 0
49 50 -51 0
49 -50 51 0
-49 50 51 0
-49 -50 -51 0
52 53 -54 0
52 -53 54 0
-52 53 54 0
-52 -53 -54 0
55 56 -57 0
55 -56 57 0
-55 56 57 0
-55 -56 -57 0
7 58 59 0
7 -58 -59 0
-7 58 -59 0
-7 -58 59 0
60 61 -62 0
60 -61 62 0
-60 61 62 0
-60 -61 -62 0
63 64 65 0
63 -64 -65 0
-63 64 -65 0
-63 -64 65 0
66 67 -68 0
66 -67 68 0
-66 67 68 0
-66 -67 -68 0
69 70 71 0
69 -70 -71 0
-69 70 -71 0
-69 -70 71 0
28 72 -73 0
28 -72 73 0
-28 72 73 0
-28 -72 -73 0
22 74 -75 0
22 -74 75 0
-22 74 75 0
-22 -74 -75 0
76 77 -78 0
76 -77 78 0
-76 77 78 0
-76 -77 -78 0
79 80 -81 0
79 -80 81 0
-79 80 81 0
-79 -80 -81 0
82 83 84 0
82 -83 -84 0
-82 83 -84 0
-82 -83 84 0
85 86 -87 0
85 -86 87 0
-85 86 87 0
-85 -86 -87 0
88 89 90 0
88 -89 -90 0
-88 89 -90 0
-88 -89 90 0
91 92 93 0
91 -92 -93 0
-91 92 -93 0
-91 -92 93 0
94 95 96 0
94 -95 -96 0
-94 95 -96 0
-94 -95 96 0
97 98 -99 0
97 -98 99 0
-97 98 99 0
-97 -98 -99 0
100 101 102 0
100 -101 -102 0
-100 101 -102 0
-100 -101 102 0
103 104 105 0
103 -104 -105 0
-103 104 -105 0
-103 -104 105 0
106 107 108 0
106 -107 -108 0
-106 107 -108 0
-106 -107 108 0
109 110 111 0
109 -110 -111 0
-109 110 -111 0
-109 -110 111 0
112 113 -114 0
112 -113 114 0
-112 113 114 0
-112 -113 -114 0
115 116 117 0
115 -116 -117 0
-115 116 -117 0
-115 -116 117 0
97 118 -119 0
97 -118 119 0
-97 118 119 0
-97 -118 -119 0
120 121 -122 0
120 -121 122 0
-120 121 122 0
-120 -121 -122 0
123 124 -125 0
123 -124 125 0
-123 124 125 0
-123 -124 -125 0
126 127 -128 0
126 -127 128 0
-126 127 128 0
-126 -127 -128 0
129 130 131 0
129 -130 -131 0
-129 130 -131 0
-129 -130 131 0
132 133 -134 0
132 -133 134 0
-132 133 134 0
-132 -133 -134 0
135 136 137 0
135 -136 -137 0
-135 136 -137 0
-135 -136 137 0
138 139 140 0
138 -139 -140 0
-138 139 -140 0
-138 -139 140 0
141 142 143 0
141 -142 -143 0
-141 142 -143 0
-141 -142 143 0
144 145 -146 0
144 -145 146 0
-144 145 146 0
-144 -145 -146 0
147 148 149 0
147 -148 -149 0
-147 148 -149 0
-147 -148 149 0
150 151 152 0
150 -151 -152 0
-150 151 -152 0
-150 -151 152 0
153 154 -155 0
153 -154 155 0
-153 154 155 0
-153 -154 -155 0
23 156 157 0
23 -156 -157 0
-23 156 -157 0
-23 -156 157 0
135 158 -159 0
135 -158 159 0
-135 158 159 0
-135 -158 -159 0
160 161 162 0
160 -161 -162 0
-160 161 -162 0
-160 -161 162 0
163 164 -165 0
163 -164 165 0
-163 164 165 0
-163 -164 -165 0
10 166 -167 0
10 -166 167 0
-10 166 167 0
-10 -166 -167 0
168 169 170 0
168 -169 -170 0
-168 169 -170 0
-168 -169 170 0
171 172 -173 0
171 -172 173 0
-171 172 173 0
-171 -172 -173 0
174 175 176 0
174 -175 -176 0
-174 175 -176 0
-174 -175 176 0
177 178 -179 0
177 -178 179 0
-177 178 179 0
-177 -178 -179 0
180 181 182 0
180 -181 -182 0
-180 181 -182 0
-180 -181 182 0
183 184 -185 0
183 -184 185 0
-183 184 185 0
-183 -184 -185 0
186 187 -188 0
186 -187 188 0
-186 187 188 0
-186 -187 -188 0
189 190 -191 0
189 -190 191 0
-189 190 191 0
-189 -190 -191 0
192 193 194 0
192 -193 -194 0
-192 193 -194 0
-192 -193 194 0
79 195 196 0
79 -195 -196 0
-79 195 -196 0
-79 -195 196 0
197 198 199 0
197 -198 -199 0
-197 198 -199 0
-197 -198 199 0
200 201 -202 0
200 -201 202 0
-200 201 202 0
-200 -201 -202 0
203 204 205 0
203 -204 -205 0
-203 204 -205 0
-203 -204 205 0
206 207 -208 0
206 -207 208 0
-206 207 208 0
-206 -207 -208 0
209 210 211 0
209 -210 -211 0
-209 210 -211 0
-209 -210 211 0
120 212 213 0
120 -212 -213 0
-120 212 -213 0
-120 -212 213 0
214 215 -216 0
214 -215 216 0
-214 215 216 0
-214 -215 -216 0
217 218 219 0
217 -218 -219 0
-217 218 -219 0
-217 -218 219 0
220 221 222 0
220 -221 -222 0
-220 221 -222 0
-220 -221 222 0
223 224 -225 0
223 -224 225 0
-223 224 225 0
-223 -224 -225 0
226 227 -228 0
226 -227 228 0
-226 227 228 0
-226 -227 -228 0
200 229 -230 0
200 -229 230 0
-200 229 230 0
-200 -229 -230 0
231 232 233 0
231 -232 -233 0
-231 232 -233 0
-231 -232 233 0
234 235 -236 0
234 -235 236 0
-234 235 236 0
-234 -235 -236 0
237 238 239 0
237 -238 -239 0
-237 238 -239 0
-237 -238 239 0
240 241 -242 0
240 -241 242 0
-240 241 242 0
-240 -241 -242 0
243 244 -245 0
243 -244 245 0
-243 244 245 0
-243 -244 -245 0
246 247 -248 0
246 -247 248 0
-246 247 248 0
-246 -247 -248 0
249 250 251 0
249 -250 -251 0
-249 250 -251 0
-249 -250 251 0
252 253 -254 0
252 -253 254 0
-252 253 254 0
-252 -253 -254 0
103 255 -256 0
103 -255 256 0
-103 255 256 0
-103 -255 -256 0
257 258 -259 0
257 -258 259 0
-257 258 259 0
-257 -258 -259 0
260 261 262 0
260 -261 -262 0
-260 261 -262 0
-260 -261 262 0
263 264 -265 0
263 -264 265 0
-263 264 265 0
-263 -264 -265 0
183 266 267 0
183 -266 -267 0
-183 266 -267 0
-183 -266 267 0
268 269 -270 0
268 -269 270 0
-268 269 270 0
-268 -269 -270 0
271 272 273 0
271 -272 -273 0
-271 272 -273 0
-271 -272 273 0
177 274 275 0
177 -274 -275 0
-177 274 -275 0
-177 -274 275 0
276 277 278 0
276 -277 -278 0
-276 277 -278 0
-276 -277 278 0
279 280 -281 0
279 -280 281 0
-279 280 281 0
-279 -280 -281 0
282 283 284 0
282 -283 -284 0
-282 283 -284 0
-282 -283 284 0
285 286 287 0
285 -286 -287 0
-285 286 -287 0
-285 -286 287 0
288 289 -290 0
288 -289 290 0
-288 289 290 0
-288 -289 -290 0
291 292 -293 0
291 -292 293 0
-291 292 293 0
-291 -292 -293 0
294 295 -296 0
294 -295 296 0
-294 295 296 0
-294 -295 -296 0
297 298 -299 0
297 -298 299 0
-297 298 299 0
-297 -298 -299 0
106 300 301 0
106 -300 -301 0
-106 300 -301 0
-106 -300 301 0
257 260 -302 0
257 -260 302 0
-257 260 302 0
-257 -260 -302 0
303 304 -305 0
303 -304 305 0
-303 304 305 0
-303 -304 -305 0
180 271 306 0
180 -271 -306 0
-180 271 -306 0
-180 -271 306 0
307 308 -309 0
307 -308 309 0
-307 308 309 0
-307 -308 -309 0
310 311 312 0
310 -311 -312 0
-310 311 -312 0
-310 -311 312 0
313 314 -315 0
313 -314 315 0
-313 314 315 0
-313 -314 -315 0
316 317 318 0
316 -317 -318 0
-316 317 -318 0
-316 -317 318 0
118 319 -320 0
118 -319 320 0
-118 319 320 0
-118 -319 -320 0
321 322 -323 0
321 -322 323 0
-321 322 323 0
-321 -322 -323 0
324 325 326 0
324 -325 -326 0
-324 325 -326 0
-324 -325 326 0
327 328 329 0
327 -328 -329 0
-327 328 -329 0
-327 -328 329 0
330 331 -332 0
330 -331 332 0
-330 331 332 0
-330 -331 -332 0
132 333 -334 0
132 -333 334 0
-132 333 334 0
-132 -333 -334 0
335 336 -337 0
335 -336 337 0
-335 336 337 0
-335 -336 -337 0
338 339 -340 0
338 -339 340 0
-338 339 340 0
-338 -339 -340 0
341 342 -343 0
341 -342 343 0
-341 342 343 0
-341 -342 -343 0
344 345 -346 0
344 -345 346 0
-344 345 346 0
-344 -345 -346 0
129 347 348 0
129 -347 -348 0
-129 347 -348 0
-129 -347 348 0
349 350 -351 0
349 -350 351 0
-349 350 351 0
-349 -350 -351 0
344 352 -353 0
344 -352 353 0
-344 352 353 0
-344 -352 -353 0
354 355 356 0
354 -355 -356 0
-354 355 -356 0
-354 -355 356 0
357 358 359 0
357 -358 -359 0
-357 358 -359 0
-357 -358 359 0
360 361 -362 0
360 -361 362 0
-360 361 362 0
-360 -361 -362 0
363 364 365 0
363 -364 -365 0
-363 364 -365 0
-363 -364 365 0
366 367 368 0
366 -367 -368 0
-366 367 -368 0
-366 -367 368 0
369 370 371 0
369 -370 -371 0
-369 370 -371 0
-369 -370 371 0
372 373 374 0
372 -373 -374 0
-372 373 -374 0
-372 -373 374 0
375 376 377 0
375 -376 -377 0
-375 376 -377 0
-375 -376 377 0
63 378 379 0
63 -378 -379 0
-63 378 -379 0
-63 -378 379 0
380 381 -382 0
380 -381 382 0
-380 381 382 0
-380 -381 -382 0
383 384 -385 0
383 -384 385 0
-383 384 385 0
-383 -384 -385 0
386 387 388 0
386 -387 -388 0
-386 387 -388 0
-386 -387 388 0
389 390 -391 0
389 -390 391 0
-389 390 391 0
-389 -390 -391 0
392 393 -394 0
392 -393 394 0
-392 393 394 0
-392 -393 -394 0
395 396 -397 0
395 -396 397 0
-395 396 397 0
-395 -396 -397 0
1 398 -399 0
1 -398 399 0
-1 398 399 0
-1 -398 -399 0
400 401 -402 0
400 -401 402 0
-400 401 402 0
-400 -401 -402 0
214 403 -404 0
214 -403 404 0
-214 403 404 0
-214 -403 -404 0
405 406 407 0
405 -406 -407 0
-405 406 -407 0
-405 -406 407 0
408 409 -410 0
408 -409 410 0
-408 409 410 0
-408 -409 -410 0
46 411 -412 0
46 -411 412 0
-46 411 412 0
-46 -411 -412 0
413 414 -415 0
413 -414 415 0
-413 414 415 0
-413 -414 -415 0
416 417 418 0
416 -417 -418 0
-416 417 -418 0
-416 -417 418 0
419 420 -421 0
419 -420 421 0
-419 420 421 0
-419 -420 -421 0
115 422 423 0
115 -422 -423 0
-115 422 -423 0
-115 -422 423 0
372 424 -425 0
372 -424 425 0
-372 424 425 0
-372 -424 -425 0
258 310 -426 0
258 -310 426 0
-258 310 426 0
-258 -310 -426 0
427 428 429 0
427 -428 -429 0
-427 428 -429 0
-427 -428 429 0
2 123 430 0
2 -123 -430 0
-2 123 -430 0
-2 -123 430 0
431 432 -433 0
431 -432 433 0
-431 432 433 0
-431 -432 -433 0
240 434 -435 0
240 -434 435 0
-240 434 435 0
-240 -434 -435 0
436 437 438 0
436 -437 -438 0
-436 437 -438 0
-436 -437 438 0
439 440 441 0
439 -440 -441 0
-439 440 -441 0
-439 -440 441 0
442 443 -444 0
442 -443 444 0
-442 443 444 0
-442 -443 -444 0
445 446 -447 0
445 -446 447 0
-445 446 447 0
-445 -446 -447 0
448 449 450 0
448 -449 -450 0
-448 449 -450 0
-448 -449 450 0
451 452 453 0
451 -452 -453 0
-451 452 -453 0
-451 -452 453 0
454 455 456 0
454 -455 -456 0
-454 455 -456 0
-454 -455 456 0
313 457 -458 0
313 -457 458 0
-313 457 458 0
-313 -457 -458 0
249 341 -459 0
249 -341 459 0
-249 341 459 0
-249 -341 -459 0
209 460 461 0
209 -460 -461 0
-209 460 -461 0
-209 -460 461 0
462 463 -464 0
462 -463 464 0
-462 463 464 0
-462 -463 -464 0
66 465 -466 0
66 -465 466 0
-66 465 466 0
-66 -465 -466 0
430 467 -468 0
430 -467 468 0
-430 467 468 0
-430 -467 -468 0
469 470 -471 0
469 -470 471 0
-469 470 471 0
-469 -470 -471 0
472 473 474 0
472 -473 -474 0
-472 473 -474 0
-472 -473 474 0
195 475 -476 0
195 -475 476 0
-195 475 476 0
-195 -475 -476 0
477 478 479 0
477 -478 -479 0
-477 478 -479 0
-477 -478 479 0
480 481 482 0
480 -481 -482 0
-480 481 -482 0
-480 -481 482 0
483 484 -485 0
483 -484 485 0
-483 484 485 0
-483 -484 -485 0
282 486 -487 0
282 -486 487 0
-282 486 487 0
-282 -486 -487 0
488 489 -490 0
488 -489 490 0
-488 489 490 0
-488 -489 -490 0
491 492 -493 0
491 -492 493 0
-491 492 493 0
-491 -492 -493 0
386 494 -495 0
386 -494 495 0
-386 494 495 0
-386 -494 -495 0
496 497 498 0
496 -497 -498 0
-496 497 -498 0
-496 -497 498 0
499 500 -501 0
499 -500 501 0
-499 500 501 0
-499 -500 -501 0
502 503 -504 0
502 -503 504 0
-502 503 504 0
-502 -503 -504 0
505 506 -507 0
505 -506 507 0
-505 506 507 0
-505 -506 -507 0
338 508 -509 0
338 -508 509 0
-338 508 509 0
-338 -508 -509 0
333 389 510 0
333 -389 -510 0
-333 389 -510 0
-333 -389 510 0
511 512 513 0
511 -512 -513 0
-511 512 -513 0
-511 -512 513 0
436 514 -515 0
436 -514 515 0
-436 514 515 0
-436 -514 -515 0
516 517 -518 0
516 -517 518 0
-516 517 518 0
-516 -517 -518 0
408 519 -520 0
408 -519 520 0
-408 519 520 0
-408 -519 -520 0
521 522 -523 0
521 -522 523 0
-521 522 523 0
-521 -522 -523 0
16 398 524 0
16 -398 -524 0
-16 398 -524 0
-16 -398 524 0
525 526 527 0
525 -526 -527 0
-525 526 -527 0
-525 -526 527 0
472 528 529 0
472 -528 -529 0
-472 528 -529 0
-472 -528 529 0
124 530 -531 0
124 -530 531 0
-124 530 531 0
-124 -530 -531 0
49 532 -533 0
49 -532 533 0
-49 532 533 0
-49 -532 -533 0
369 534 -535 0
369 -534 535 0
-369 534 535 0
-369 -534 -535 0
203 536 -537 0
203 -536 537 0
-203 536 537 0
-203 -536 -537 0
184 538 -539 0
184 -538 539 0
-184 538 539 0
-184 -538 -539 0
352 540 541 0
352 -540 -541 0
-352 540 -541 0
-352 -540 541 0
542 543 -544 0
542 -543 544 0
-542 543 544 0
-542 -543 -544 0
532 545 -546 0
532 -545 546 0
-532 545 546 0
-532 -545 -546 0
547 548 -549 0
547 -548 549 0
-547 548 549 0
-547 -548 -549 0
327 502 550 0
327 -502 -550 0
-327 502 -550 0
-327 -502 550 0
551 552 -553 0
551 -552 553 0
-551 552 553 0
-551 -552 -553 0
197 554 -555 0
197 -554 555 0
-197 554 555 0
-197 -554 -555 0
556 557 -558 0
556 -557 558 0
-556 557 558 0
-556 -557 -558 0
266 559 560 0
266 -559 -560 0
-266 559 -560 0
-266 -559 560 0
392 561 -562 0
392 -561 562 0
-392 561 562 0
-392 -561 -562 0
104 121 563 0
104 -121 -563 0
-104 121 -563 0
-104 -121 563 0
8 451 -564 0
8 -451 564 0
-8 451 564 0
-8 -451 -564 0
565 566 -567 0
565 -566 567 0
-565 566 567 0
-565 -566 -567 0
534 568 569 0
534 -568 -569 0
-534 568 -569 0
-534 -568 569 0
43 570 571 0
43 -570 -571 0
-43 570 -571 0
-43 -570 571 0
411 419 572 0
411 -419 -572 0
-411 419 -572 0
-411 -419 572 0
422 573 -574 0
422 -573 574 0
-422 573 574 0
-422 -573 -574 0
276 575 -576 0
276 -575 576 0
-276 575 576 0
-276 -575 -576 0
577 578 -579 0
577 -578 579 0
-577 578 579 0
-577 -578 -579 0
580 581 -582 0
580 -581 582 0
-580 581 582 0
-580 -581 -582 0
373 583 -584 0
373 -583 584 0
-373 583 584 0
-373 -583 -584 0
585 586 -587 0
585 -586 587 0
-585 586 587 0
-585 -586 -587 0
588 589 -590 0
588 -589 590 0
-588 589 590 0
-588 -589 -590 0
591 592 -593 0
591 -592 593 0
-591 592 593 0
-591 -592 -593 0
136 594 595 0
136 -594 -595 0
-136 594 -595 0
-136 -594 595 0
596 597 -598 0
596 -597 598 0
-596 597 598 0
-596 -597 -598 0
599 600 601 0
599 -600 -601 0
-599 600 -601 0
-599 -600 601 0
568 602 -603 0
568 -602 603 0
-568 602 603 0
-568 -602 -603 0
82 604 605 0
82 -604 -605 0
-82 604 -605 0
-82 -604 605 0
591 606 607 0
591 -606 -607 0
-591 606 -607 0
-591 -606 607 0
608 609 -610 0
608 -609 610 0
-608 609 610 0
-608 -609 -610 0
321 535 611 0
321 -535 -611 0
-321 535 -611 0
-321 -535 611 0
612 613 -614 0
612 -613 614 0
-612 613 614 0
-612 -613 -614 0
615 616 617 0
615 -616 -617 0
-615 616 -617 0
-615 -616 617 0
76 473 -618 0
76 -473 618 0
-76 473 618 0
-76 -473 -618 0
619 620 621 0
619 -620 -621 0
-619 620 -621 0
-619 -620 621 0
622 623 -624 0
622 -623 624 0
-622 623 624 0
-622 -623 -624 0
625 626 -627 0
625 -626 627 0
-625 626 627 0
-625 -626 -627 0
570 628 -629 0
570 -628 629 0
-570 628 629 0
-570 -628 -629 0
585 630 631 0
585 -630 -631 0
-585 630 -631 0
-585 -630 631 0
204 632 -633 0
204 -632 633 0
-204 632 633 0
-204 -632 -633 0
231 634 -635 0
231 -634 635 0
-231 634 635 0
-231 -634 -635 0
636 637 638 0
636 -637 -638 0
-636 637 -638 0
-636 -637 638 0
639 640 -641 0
639 -640 641 0
-639 640 641 0
-639 -640 -641 0
47 642 -643 0
47 -642 643 0
-47 642 643 0
-47 -642 -643 0
150 644 645 0
150 -644 -645 0
-150 644 -645 0
-150 -644 645 0
439 646 -647 0
439 -646 647 0
-439 646 647 0
-439 -646 -647 0
625 648 649 0
625 -648 -649 0
-625 648 -649 0
-625 -648 649 0
126 650 -651 0
126 -650 651 0
-126 650 651 0
-126 -650 -651 0
530 652 653 0
530 -652 -653 0
-530 652 -653 0
-530 -652 653 0
122 654 655 0
122 -654 -655 0
-122 654 -655 0
-122 -654 655 0
153 656 657 0
153 -656 -657 0
-153 656 -657 0
-153 -656 657 0
201 658 659 0
201 -658 -659 0
-201 658 -659 0
-201 -658 659 0
660 661 662 0
660 -661 -662 0
-660 661 -662 0
-660 -661 662 0
663 664 665 0
663 -664 -665 0
-663 664 -665 0
-663 -664 665 0
666 667 668 0
666 -667 -668 0
-666 667 -668 0
-666 -667 668 0
119 669 670 0
119 -669 -670 0
-119 669 -670 0
-119 -669 670 0
671 672 -673 0
671 -672 673 0
-671 672 673 0
-671 -672 -673 0
223 316 445 0
223 -316 -445 0
-223 316 -445 0
-223 -316 445 0
674 675 676 0
674 -675 -676 0
-674 675 -676 0
-674 -675 676 0
4 677 -678 0
4 -677 678 0
-4 677 678 0
-4 -677 -678 0
596 679 -680 0
596 -679 680 0
-596 679 680 0
-596 -679 -680 0
681 682 683 0
681 -682 -683 0
-681 682 -683 0
-681 -682 683 0
156 370 -684 0
156 -370 684 0
-156 370 684 0
-156 -370 -684 0
685 686 687 0
685 -686 -687 0
-685 686 -687 0
-685 -686 687 0
157 212 349 0
157 -212 -349 0
-157 212 -349 0
-157 -212 349 0
688 689 -690 0
688 -689 690 0
-688 689 690 0
-688 -689 -690 0
60 691 -692 0
60 -691 692 0
-60 691 692 0
-60 -691 -692 0
198 693 694 0
198 -693 -694 0
-198 693 -694 0
-198 -693 694 0
695 696 -697 0
695 -696 697 0
-695 696 697 0
-695 -696 -697 0
34 565 698 0
34 -565 -698 0
-34 565 -698 0
-34 -565 698 0
699 700 -701 0
699 -700 701 0
-699 700 701 0
-699 -700 -701 0
5 602 702 0
5 -602 -702 0
-5 602 -702 0
-5 -602 702 0
703 704 705 0
703 -704 -705 0
-703 704 -705 0
-703 -704 705 0
706 707 708 0
706 -707 -708 0
-706 707 -708 0
-706 -707 708 0
709 710 -711 0
709 -710 711 0
-709 710 711 0
-709 -710 -711 0
168 712 -713 0
168 -712 713 0
-168 712 713 0
-168 -712 -713 0
511 714 -715 0
511 -714 715 0
-511 714 715 0
-511 -714 -715 0
98 716 717 0
98 -716 -717 0
-98 716 -717 0
-98 -716 717 0
442 718 719 0
442 -718 -719 0
-442 718 -719 0
-442 -718 719 0
80 405 720 0
80 -405 -720 0
-80 405 -720 0
-80 -405 720 0
462 721 722 0
462 -721 -722 0
-462 721 -722 0
-462 -721 722 0
723 724 725 0
723 -724 -725 0
-723 724 -725 0
-723 -724 725 0
561 726 -727 0
561 -726 727 0
-561 726 727 0
-561 -726 -727 0
728 729 -730 0
728 -729 730 0
-728 729 730 0
-728 -729 -730 0
531 731 -732 0
531 -731 732 0
-531 731 732 0
-531 -731 -732 0
166 192 733 0
166 -192 -733 0
-166 192 -733 0
-166 -192 733 0
734 735 -736 0
734 -735 736 0
-734 735 736 0
-734 -735 -736 0
360 737 738 0
360 -737 -738 0
-360 737 -738 0
-360 -737 738 0
37 739 -740 0
37 -739 740 0
-37 739 740 0
-37 -739 -740 0
297 378 -741 0
297 -378 741 0
-297 378 741 0
-297 -378 -741 0
19 742 -743 0
19 -742 743 0
-19 742 743 0
-19 -742 -743 0
744 745 746 0
744 -745 -746 0
-744 745 -746 0
-744 -745 746 0
69 747 -748 0
69 -747 748 0
-69 747 748 0
-69 -747 -748 0
749 750 751 0
749 -750 -751 0
-749 750 -751 0
-749 -750 751 0
588 752 -753 0
588 -752 753 0
-588 752 753 0
-588 -752 -753 0
619 754 -755 0
619 -754 755 0
-619 754 755 0
-619 -754 -755 0
756 757 758 0
756 -757 -758 0
-756 757 -758 0
-756 -757 758 0
759 760 -761 0
759 -760 761 0
-759 760 761 0
-759 -760 -761 0
361 762 -763 0
361 -762 763 0
-361 762 763 0
-361 -762 -763 0
443 764 765 0
443 -764 -765 0
-443 764 -765 0
-443 -764 765 0
363 766 767 0
363 -766 -767 0
-363 766 -767 0
-363 -766 767 0
768 769 -770 0
768 -769 770 0
-768 769 770 0
-768 -769 -770 0
434 771 -772 0
434 -771 772 0
-434 771 772 0
-434 -771 -772 0
91 246 773 0
91 -246 -773 0
-91 246 -773 0
-91 -246 773 0
774 775 776 0
774 -775 -776 0
-774 775 -776 0
-774 -775 776 0
654 777 -778 0
654 -777 778 0
-654 777 778 0
-654 -777 -778 0
112 569 779 0
112 -569 -779 0
-112 569 -779 0
-112 -569 779 0
67 721 780 0
67 -721 -780 0
-67 721 -780 0
-67 -721 780 0
781 782 -783 0
781 -782 783 0
-781 782 783 0
-781 -782 -783 0
379 784 -785 0
379 -784 785 0
-379 784 785 0
-379 -784 -785 0
786 787 -788 0
786 -787 788 0
-786 787 788 0
-786 -787 -788 0
427 521 789 0
427 -521 -789 0
-427 521 -789 0
-427 -521 789 0
538 790 -791 0
538 -790 791 0
-538 790 791 0
-538 -790 -791 0
781 792 793 0
781 -792 -793 0
-781 792 -793 0
-781 -792 793 0
794 795 796 0
794 -795 -796 0
-794 795 -796 0
-794 -795 796 0
797 798 -799 0
797 -798 799 0
-797 798 799 0
-797 -798 -799 0
516 599 800 0
516 -599 -800 0
-516 599 -800 0
-516 -599 800 0
105 496 747 0
105 -496 -747 0
-105 496 -747 0
-105 -496 747 0
615 801 -802 0
615 -801 802 0
-615 801 802 0
-615 -801 -802 0
512 706 -803 0
512 -706 803 0
-512 706 803 0
-512 -706 -803 0
261 804 805 0
261 -804 -805 0
-261 804 -805 0
-261 -804 805 0
317 806 -807 0
317 -806 807 0
-317 806 807 0
-317 -806 -807 0
808 809 -810 0
808 -809 810 0
-808 809 810 0
-808 -809 -810 0
151 279 811 0
151 -279 -811 0
-151 279 -811 0
-151 -279 811 0
612 812 -813 0
612 -812 813 0
-612 812 813 0
-612 -812 -813 0
307 814 815 0
307 -814 -815 0
-307 814 -815 0
-307 -814 815 0
226 347 -816 0
226 -347 816 0
-226 347 816 0
-226 -347 -816 0
413 817 818 0
413 -817 -818 0
-413 817 -818 0
-413 -817 818 0
819 820 -821 0
819 -820 821 0
-819 820 821 0
-819 -820 -821 0
116 822 -823 0
116 -822 823 0
-116 822 823 0
-116 -822 -823 0
302 824 825 0
302 -824 -825 0
-302 824 -825 0
-302 -824 825 0
826 827 -828 0
826 -827 828 0
-826 827 828 0
-826 -827 -828 0
252 829 830 0
252 -829 -830 0
-252 829 -830 0
-252 -829 830 0
831 832 833 0
831 -832 -833 0
-831 832 -833 0
-831 -832 833 0
61 834 835 0
61 -834 -835 0
-61 834 -835 0
-61 -834 835 0
74 505 -836 0
74 -505 836 0
-74 505 836 0
-74 -505 -836 0
688 837 838 0
688 -837 -838 0
-688 837 -838 0
-688 -837 838 0
229 839 840 0
229 -839 -840 0
-229 839 -840 0
-229 -839 840 0
841 842 843 0
841 -842 -843 0
-841 842 -843 0
-841 -842 843 0
454 709 -723 0
454 -709 723 0
-454 709 723 0
-454 -709 -723 0
844 845 -846 0
844 -845 846 0
-844 845 846 0
-844 -845 -846 0
38 559 847 0
38 -559 -847 0
-38 559 -847 0
-38 -559 847 0
440 848 -849 0
440 -848 849 0
-440 848 849 0
-440 -848 -849 0
850 851 -852 0
850 -851 852 0
-850 851 852 0
-850 -851 -852 0
55 395 853 0
55 -395 -853 0
-55 395 -853 0
-55 -395 853 0
158 854 855 0
158 -854 -855 0
-158 854 -855 0
-158 -854 855 0
856 857 858 0
856 -857 -858 0
-856 857 -858 0
-856 -857 858 0
854 859 -860 0
854 -859 860 0
-854 859 860 0
-854 -859 -860 0
52 861 -862 0
52 -861 862 0
-52 861 862 0
-52 -861 -862 0
685 803 -863 0
685 -803 863 0
-685 803 863 0
-685 -803 -863 0
671 864 865 0
671 -864 -865 0
-671 864 -865 0
-671 -864 865 0
441 866 867 0
441 -866 -867 0
-441 866 -867 0
-441 -866 867 0
409 868 -869 0
409 -868 869 0
-409 868 869 0
-409 -868 -869 0
40 870 -871 0
40 -870 871 0
-40 870 871 0
-40 -870 -871 0
94 872 -873 0
94 -872 873 0
-94 872 873 0
-94 -872 -873 0
268 308 874 0
268 -308 -874 0
-268 308 -874 0
-268 -308 874 0
130 594 -875 0
130 -594 875 0
-130 594 875 0
-130 -594 -875 0
774 876 877 0
774 -876 -877 0
-774 876 -877 0
-774 -876 877 0
577 878 -879 0
577 -878 879 0
-577 878 879 0
-577 -878 -879 0
880 881 882 0
880 -881 -882 0
-880 881 -882 0
-880 -881 882 0
883 884 885 0
883 -884 -885 0
-883 884 -885 0
-883 -884 885 0
886 887 -888 0
886 -887 888 0
-886 887 888 0
-886 -887 -888 0
412 792 -889 0
412 -792 889 0
-412 792 889 0
-412 -792 -889 0
206 396 890 0
206 -396 -890 0
-206 396 -890 0
-206 -396 890 0
72 891 -892 0
72 -891 892 0
-72 891 892 0
-72 -891 -892 0
189 693 -893 0
189 -693 893 0
-189 693 893 0
-189 -693 -893 0
383 894 -895 0
383 -894 895 0
-383 894 895 0
-383 -894 -895 0
848 896 -897 0
848 -896 897 0
-848 896 897 0
-848 -896 -897 0
13 160 -898 0
13 -160 898 0
-13 160 898 0
-13 -160 -898 0
375 636 -899 0
375 -636 899 0
-375 636 899 0
-375 -636 -899 0
731 900 901 0
731 -900 -901 0
-731 900 -901 0
-731 -900 901 0
611 902 -903 0
611 -902 903 0
-611 902 903 0
-611 -902 -903 0
446 831 904 0
446 -831 -904 0
-446 831 -904 0
-446 -831 904 0
85 905 -906 0
85 -905 906 0
-85 905 906 0
-85 -905 -906 0
563 907 908 0
563 -907 -908 0
-563 907 -908 0
-563 -907 908 0
804 909 -910 0
804 -909 910 0
-804 909 910 0
-804 -909 -910 0
335 513 608 0
335 -513 -608 0
-335 513 -608 0
-335 -513 608 0
237 448 911 0
237 -448 -911 0
-237 448 -911 0
-237 -448 911 0
912 913 -914 0
912 -913 914 0
-912 913 914 0
-912 -913 -914 0
50 915 -916 0
50 -915 916 0
-50 915 916 0
-50 -915 -916 0
144 634 -917 0
144 -634 917 0
-144 634 917 0
-144 -634 -917 0
628 918 -919 0
628 -918 919 0
-628 918 919 0
-628 -918 -919 0
376 460 -855 0
376 -460 855 0
-376 460 855 0
-376 -460 -855 0
41 263 -536 0
41 -263 536 0
-41 263 536 0
-41 -263 -536 0
39 811 920 0
39 -811 -920 0
-39 811 -920 0
-39 -811 920 0
259 921 -922 0
259 -921 922 0
-259 921 922 0
-259 -921 -922 0
874 923 -924 0
874 -923 924 0
-874 923 924 0
-874 -923 -924 0
575 925 926 0
575 -925 -926 0
-575 925 -926 0
-575 -925 926 0
927 928 -929 0
927 -928 929 0
-927 928 929 0
-927 -928 -929 0
930 931 -932 0
930 -931 932 0
-930 931 932 0
-930 -931 -932 0
190 898 933 0
190 -898 -933 0
-190 898 -933 0
-190 -898 933 0
856 934 935 0
856 -934 -935 0
-856 934 -935 0
-856 -934 935 0
267 936 937 0
267 -936 -937 0
-267 936 -937 0
-267 -936 937 0
525 938 939 0
525 -938 -939 0
-525 938 -939 0
-525 -938 939 0
457 488 940 0
457 -488 -940 0
-457 488 -940 0
-457 -488 940 0
483 941 942 0
483 -941 -942 0
-483 941 -942 0
-483 -941 942 0
416 522 943 0
416 -522 -943 0
-416 522 -943 0
-416 -522 943 0
944 945 -946 0
944 -945 946 0
-944 945 946 0
-944 -945 -946 0
371 609 -947 0
371 -609 947 0
-371 609 947 0
-371 -609 -947 0
354 948 949 0
354 -948 -949 0
-354 948 -949 0
-354 -948 949 0
70 950 951 0
70 -950 -951 0
-70 950 -951 0
-70 -950 951 0
597 938 -952 0
597 -938 952 0
-597 938 952 0
-597 -938 -952 0
62 891 953 0
62 -891 -953 0
-62 891 -953 0
-62 -891 953 0
342 435 954 0
342 -435 -954 0
-342 435 -954 0
-342 -435 954 0
264 629 -944 0
264 -629 944 0
-264 629 944 0
-264 -629 -944 0
955 956 957 0
955 -956 -957 0
-955 956 -957 0
-955 -956 957 0
300 958 -959 0
300 -958 959 0
-300 958 959 0
-300 -958 -959 0
508 960 961 0
508 -960 -961 0
-508 960 -961 0
-508 -960 961 0
775 962 -963 0
775 -962 963 0
-775 962 963 0
-775 -962 -963 0
964 965 -966 0
964 -965 966 0
-964 965 966 0
-964 -965 -966 0
689 950 967 0
689 -950 -967 0
-689 950 -967 0
-689 -950 967 0
537 722 968 0
537 -722 -968 0
-537 722 -968 0
-537 -722 968 0
291 969 -970 0
291 -969 970 0
-291 969 970 0
-291 -969 -970 0
971 972 -973 0
971 -972 973 0
-971 972 973 0
-971 -972 -973 0
648 974 -975 0
648 -974 975 0
-648 974 975 0
-648 -974 -975 0
716 732 -976 0
716 -732 976 0
-716 732 976 0
-716 -732 -976 0
762 872 -977 0
762 -872 977 0
-762 872 977 0
-762 -872 -977 0
186 644 978 0
186 -644 -978 0
-186 644 -978 0
-186 -644 978 0
979 980 981 0
979 -980 -981 0
-979 980 -981 0
-979 -980 981 0
982 983 -984 0
982 -983 984 0
-982 983 984 0
-982 -983 -984 0
303 431 -474 0
303 -431 474 0
-303 431 474 0
-303 -431 -474 0
280 971 985 0
280 -971 -985 0
-280 971 -985 0
-280 -971 985 0
524 894 -986 0
524 -894 986 0
-524 894 986 0
-524 -894 -986 0
918 987 -988 0
918 -987 988 0
-918 987 988 0
-918 -987 -988 0
749 816 -829 0
749 -816 829 0
-749 816 829 0
-749 -816 -829 0
968 989 990 0
968 -989 -990 0
-968 989 -990 0
-968 -989 990 0
241 991 992 0
241 -991 -992 0
-241 991 -992 0
-241 -991 992 0
850 921 993 0
850 -921 -993 0
-850 921 -993 0
-850 -921 993 0
948 994 -995 0
948 -994 995 0
-948 994 995 0
-948 -994 -995 0
467 699 -996 0
467 -699 996 0
-467 699 996 0
-467 -699 -996 0
997 998 -999 0
997 -998 999 0
-997 998 999 0
-997 -998 -999 0
468 859 982 0
468 -859 -982 0
-468 859 -982 0
-468 -859 982 0
1000 1001 -1002 0
1000 -1001 1002 0
-1000 1001 1002 0
-1000 -1001 -1002 0
1003 1004 -1005 0
1003 -1004 1005 0
-1003 1004 1005 0
-1003 -1004 -1005 0
528 613 1006 0
528 -613 -1006 0
-528 613 -1006 0
-528 -613 1006 0
29 217 819 0
29 -217 -819 0
-29 217 -819 0
-29 -217 819 0
1007 1008 -1009 0
1007 -1008 1009 0
-1007 1008 1009 0
-1007 -1008 -1009 0
1010 1011 1012 0
1010 -1011 -1012 0
-1010 1011 -1012 0
-1010 -1011 1012 0
695 1013 1014 0
695 -1013 -1014 0
-695 1013 -1014 0
-695 -1013 1014 0
452 1015 -1016 0
452 -1015 1016 0
-452 1015 1016 0
-452 -1015 -1016 0
255 844 1017 0
255 -844 -1017 0
-255 844 -1017 0
-255 -844 1017 0
1018 1019 1020 0
1018 -1019 -1020 0
-1018 1019 -1020 0
-1018 -1019 1020 0
941 1003 1021 0
941 -1003 -1021 0
-941 1003 -1021 0
-941 -1003 1021 0
494 1022 -1023 0
494 -1022 1023 0
-494 1022 1023 0
-494 -1022 -1023 0
1024 1025 -1026 0
1024 -1025 1026 0
-1024 1025 1026 0
-1024 -1025 -1026 0
841 1027 1028 0
841 -1027 -1028 0
-841 1027 -1028 0
-841 -1027 1028 0
714 1029 -1030 0
714 -1029 1030 0
-714 1029 1030 0
-714 -1029 -1030 0
64 786 -1031 0
64 -786 1031 0
-64 786 1031 0
-64 -786 -1031 0
437 974 -1032 0
437 -974 1032 0
-437 974 1032 0
-437 -974 -1032 0
698 1033 -1034 0
698 -1033 1034 0
-698 1033 1034 0
-698 -1033 -1034 0
100 420 -712 0
100 -420 712 0
-100 420 712 0
-100 -420 -712 0
1035 1036 1037 0
1035 -1036 -1037 0
-1035 1036 -1037 0
-1035 -1036 1037 0
583 1038 -1039 0
583 -1038 1039 0
-583 1038 1039 0
-583 -1038 -1039 0
539 1040 1041 0
539 -1040 -1041 0
-539 1040 -1041 0
-539 -1040 1041 0
899 1042 1043 0
899 -1042 -1043 0
-899 1042 -1043 0
-899 -1042 1043 0
304 580 -1044 0
304 -580 1044 0
-304 580 1044 0
-304 -580 -1044 0
88 876 1045 0
88 -876 -1045 0
-88 876 -1045 0
-88 -876 1045 0
920 1046 -1047 0
920 -1046 1047 0
-920 1046 1047 0
-920 -1046 -1047 0
210 1033 1048 0
210 -1033 -1048 0
-210 1033 -1048 0
-210 -1033 1048 0
432 639 -1049 0
432 -639 1049 0
-432 639 1049 0
-432 -639 -1049 0
292 364 -1050 0
292 -364 1050 0
-292 364 1050 0
-292 -364 -1050 0
163 642 -748 0
163 -642 748 0
-163 642 748 0
-163 -642 -748 0
390 989 -1051 0
390 -989 1051 0
-390 989 1051 0
-390 -989 -1051 0
232 380 -1052 0
232 -380 1052 0
-232 380 1052 0
-232 -380 -1052 0
750 964 -1053 0
750 -964 1053 0
-750 964 1053 0
-750 -964 -1053 0
25 53 -1054 0
25 -53 1054 0
-25 53 1054 0
-25 -53 -1054 0
912 1055 -1056 0
912 -1055 1056 0
-912 1055 1056 0
-912 -1055 -1056 0
343 1057 1058 0
343 -1057 -1058 0
-343 1057 -1058 0
-343 -1057 1058 0
1055 1059 -1060 0
1055 -1059 1060 0
-1055 1059 1060 0
-1055 -1059 -1060 0
650 1061 -1062 0
650 -1061 1062 0
-650 1061 1062 0
-650 -1061 -1062 0
660 1063 1064 0
660 -1063 -1064 0
-660 1063 -1064 0
-660 -1063 1064 0
622 824 1065 0
622 -824 -1065 0
-622 824 -1065 0
-622 -824 1065 0
907 1066 1067 0
907 -1066 -1067 0
-907 1066 -1067 0
-907 -1066 1067 0
533 1007 1068 0
533 -1007 -1068 0
-533 1007 -1068 0
-533 -1007 1068 0
350 357 589 0
350 -357 -589 0
-350 357 -589 0
-350 -357 589 0
1069 1070 1071 0
1069 -1070 -1071 0
-1069 1070 -1071 0
-1069 -1070 1071 0
886 1072 -1073 0
886 -1072 1073 0
-886 1072 1073 0
-886 -1072 -1073 0
691 1074 -1075 0
691 -1074 1075 0
-691 1074 1075 0
-691 -1074 -1075 0
1076 1077 -1078 0
1076 -1077 1078 0
-1076 1077 1078 0
-1076 -1077 -1078 0
58 1051 -1079 0
58 -1051 1079 0
-58 1051 1079 0
-58 -1051 -1079 0
517 1080 -1081 0
517 -1080 1081 0
-517 1080 1081 0
-517 -1080 -1081 0
497 562 -836 0
497 -562 836 0
-497 562 836 0
-497 -562 -836 0
1082 1083 1084 0
1082 -1083 -1084 0
-1082 1083 -1084 0
-1082 -1083 1084 0
345 822 -1085 0
345 -822 1085 0
-345 822 1085 0
-345 -822 -1085 0
1086 1087 1088 0
1086 -1087 -1088 0
-1086 1087 -1088 0
-1086 -1087 1088 0
1013 1089 -1090 0
1013 -1089 1090 0
-1013 1089 1090 0
-1013 -1089 -1090 0
247 1035 -1091 0
247 -1035 1091 0
-247 1035 1091 0
-247 -1035 -1091 0
455 1092 -1093 0
455 -1092 1093 0
-455 1092 1093 0
-455 -1092 -1093 0
400 1094 1095 0
400 -1094 -1095 0
-400 1094 -1095 0
-400 -1094 1095 0
909 1096 1097 0
909 -1096 -1097 0
-909 1096 -1097 0
-909 -1096 1097 0
806 943 1046 0
806 -943 -1046 0
-806 943 -1046 0
-806 -943 1046 0
759 1098 -1099 0
759 -1098 1099 0
-759 1098 1099 0
-759 -1098 -1099 0
285 1040 -1100 0
285 -1040 1100 0
-285 1040 1100 0
-285 -1040 -1100 0
401 952 1101 0
401 -952 -1101 0
-401 952 -1101 0
-401 -952 1101 0
51 954 -993 0
51 -954 993 0
-51 954 993 0
-51 -954 -993 0
486 1038 1102 0
486 -1038 -1102 0
-486 1038 -1102 0
-486 -1038 1102 0
233 1103 1104 0
233 -1103 -1104 0
-233 1103 -1104 0
-233 -1103 1104 0
125 1105 1106 0
125 -1105 -1106 0
-125 1105 -1106 0
-125 -1105 1106 0
1107 1108 -1109 0
1107 -1108 1109 0
-1107 1108 1109 0
-1107 -1108 -1109 0
1110 1111 1112 0
1110 -1111 -1112 0
-1110 1111 -1112 0
-1110 -1111 1112 0
679 1113 1114 0
679 -1113 -1114 0
-679 1113 -1114 0
-679 -1113 1114 0
877 1115 -1116 0
877 -1115 1116 0
-877 1115 1116 0
-877 -1115 -1116 0
592 646 -1117 0
592 -646 1117 0
-592 646 1117 0
-592 -646 -1117 0
1118 1119 1120 0
1118 -1119 -1120 0
-1118 1119 -1120 0
-1118 -1119 1120 0
1121 1122 -1123 0
1121 -1122 1123 0
-1121 1122 1123 0
-1121 -1122 -1123 0
24 393 -1124 0
24 -393 1124 0
-24 393 1124 0
-24 -393 -1124 0
250 506 1125 0
250 -506 -1125 0
-250 506 -1125 0
-250 -506 1125 0
227 391 -1126 0
227 -391 1126 0
-227 391 1126 0
-227 -391 -1126 0
1127 1128 1129 0
1127 -1128 -1129 0
-1127 1128 -1129 0
-1127 -1128 1129 0
417 556 -1085 0
417 -556 1085 0
-417 556 1085 0
-417 -556 -1085 0
238 1130 1131 0
238 -1130 -1131 0
-238 1130 -1131 0
-238 -1130 1131 0
581 1132 -1133 0
581 -1132 1133 0
-581 1132 1133 0
-581 -1132 -1133 0
480 630 1134 0
480 -630 -1134 0
-480 630 -1134 0
-480 -630 1134 0
742 1135 -1136 0
742 -1135 1136 0
-742 1135 1136 0
-742 -1135 -1136 0
547 554 -1137 0
547 -554 1137 0
-547 554 1137 0
-547 -554 -1137 0
243 1138 -1139 0
243 -1138 1139 0
-243 1138 1139 0
-243 -1138 -1139 0
207 1140 1141 0
207 -1140 -1141 0
-207 1140 -1141 0
-207 -1140 1141 0
896 1142 1143 0
896 -1142 -1143 0
-896 1142 -1143 0
-896 -1142 1143 0
945 1144 -1145 0
945 -1144 1145 0
-945 1144 1145 0
-945 -1144 -1145 0
598 936 1146 0
598 -936 -1146 0
-598 936 -1146 0
-598 -936 1146 0
1069 1147 1148 0
1069 -1147 -1148 0
-1069 1147 -1148 0
-1069 -1147 1148 0
647 1149 -1150 0
647 -1149 1150 0
-647 1149 1150 0
-647 -1149 -1150 0
248 336 1151 0
248 -336 -1151 0
-248 336 -1151 0
-248 -336 1151 0
89 334 -1094 0
89 -334 1094 0
-89 334 1094 0
-89 -334 -1094 0
766 962 1152 0
766 -962 -1152 0
-766 962 -1152 0
-766 -962 1152 0
397 793 1153 0
397 -793 -1153 0
-397 793 -1153 0
-397 -793 1153 0
286 717 1154 0
286 -717 -1154 0
-286 717 -1154 0
-286 -717 1154 0
1155 1156 1157 0
1155 -1156 -1157 0
-1155 1156 -1157 0
-1155 -1156 1157 0
707 1158 1159 0
707 -1158 -1159 0
-707 1158 -1159 0
-707 -1158 1159 0
1160 1161 -1162 0
1160 -1161 1162 0
-1160 1161 1162 0
-1160 -1161 -1162 0
458 616 -1163 0
458 -616 1163 0
-458 616 1163 0
-458 -616 -1163 0
514 1164 -1165 0
514 -1164 1165 0
-514 1164 1165 0
-514 -1164 -1165 0
640 1140 -1166 0
640 -1140 1166 0
-640 1140 1166 0
-640 -1140 -1166 0
860 1167 -1168 0
860 -1167 1168 0
-860 1167 1168 0
-860 -1167 -1168 0
294 1169 -1170 0
294 -1169 1170 0
-294 1169 1170 0
-294 -1169 -1170 0
127 548 -658 0
127 -548 658 0
-127 548 658 0
-127 -548 -658 0
724 1171 -1172 0
724 -1171 1172 0
-724 1171 1172 0
-724 -1171 -1172 0
95 244 -1173 0
95 -244 1173 0
-95 244 1173 0
-95 -244 -1173 0
319 837 1174 0
319 -837 -1174 0
-319 837 -1174 0
-319 -837 1174 0
384 1175 1176 0
384 -1175 -1176 0
-384 1175 -1176 0
-384 -1175 1176 0
754 1177 -1178 0
754 -1177 1178 0
-754 1177 1178 0
-754 -1177 -1178 0
109 666 -1179 0
109 -666 1179 0
-109 666 1179 0
-109 -666 -1179 0
889 1180 1181 0
889 -1180 -1181 0
-889 1180 -1181 0
-889 -1180 1181 0
632 776 1135 0
632 -776 -1135 0
-632 776 -1135 0
-632 -776 1135 0
117 905 -1063 0
117 -905 1063 0
-117 905 1063 0
-117 -905 -1063 0
1068 1182 -1183 0
1068 -1182 1183 0
-1068 1182 1183 0
-1068 -1182 -1183 0
145 438 -1184 0
145 -438 1184 0
-145 438 1184 0
-145 -438 -1184 0
895 1185 -1186 0
895 -1185 1186 0
-895 1185 1186 0
-895 -1185 -1186 0
566 1061 -1187 0
566 -1061 1187 0
-566 1061 1187 0
-566 -1061 -1187 0
234 399 -1188 0
234 -399 1188 0
-234 399 1188 0
-234 -399 -1188 0
925 1044 1189 0
925 -1044 -1189 0
-925 1044 -1189 0
-925 -1044 1189 0
1190 1191 -1192 0
1190 -1191 1192 0
-1190 1191 1192 0
-1190 -1191 -1192 0
857 1098 1193 0
857 -1098 -1193 0
-857 1098 -1193 0
-857 -1098 1193 0
353 1194 -1195 0
353 -1194 1195 0
-353 1194 1195 0
-353 -1194 -1195 0
463 866 -913 0
463 -866 913 0
-463 866 913 0
-463 -866 -913 0
99 917 1196 0
99 -917 -1196 0
-99 917 -1196 0
-99 -917 1196 0
1056 1197 -1198 0
1056 -1197 1198 0
-1056 1197 1198 0
-1056 -1197 -1198 0
1199 1200 1201 0
1199 -1200 -1201 0
-1199 1200 -1201 0
-1199 -1200 1201 0
764 1202 -1203 0
764 -1202 1203 0
-764 1202 1203 0
-764 -1202 -1203 0
739 1204 1205 0
739 -1204 -1205 0
-739 1204 -1205 0
-739 -1204 1205 0
330 551 1206 0
330 -551 -1206 0
-330 551 -1206 0
-330 -551 1206 0
663 1015 -1207 0
663 -1015 1207 0
-663 1015 1207 0
-663 -1015 -1207 0
510 1130 -1164 0
510 -1130 1164 0
-510 1130 1164 0
-510 -1130 -1164 0
453 861 -1208 0
453 -861 1208 0
-453 861 1208 0
-453 -861 -1208 0
377 540 1070 0
377 -540 -1070 0
-377 540 -1070 0
-377 -540 1070 0
239 1209 1210 0
239 -1209 -1210 0
-239 1209 -1210 0
-239 -1209 1210 0
348 418 -1211 0
348 -418 1211 0
-348 418 1211 0
-348 -418 -1211 0
31 1212 -1213 0
31 -1212 1213 0
-31 1212 1213 0
-31 -1212 -1213 0
1092 1214 1215 0
1092 -1214 -1215 0
-1092 1214 -1215 0
-1092 -1214 1215 0
826 1216 -1217 0
826 -1216 1217 0
-826 1216 1217 0
-826 -1216 -1217 0
789 1174 -1194 0
789 -1174 1194 0
-789 1174 1194 0
-789 -1174 -1194 0
339 1017 1173 0
339 -1017 -1173 0
-339 1017 -1173 0
-339 -1017 1173 0
737 1218 -1219 0
737 -1218 1219 0
-737 1218 1219 0
-737 -1218 -1219 0
272 767 1154 0
272 -767 -1154 0
-272 767 -1154 0
-272 -767 1154 0
56 1214 -1220 0
56 -1214 1220 0
-56 1214 1220 0
-56 -1214 -1220 0
499 606 -1221 0
499 -606 1221 0
-499 606 1221 0
-499 -606 -1221 0
26 1179 1222 0
26 -1179 -1222 0
-26 1179 -1222 0
-26 -1179 1222 0
641 955 -1223 0
641 -955 1223 0
-641 955 1223 0
-641 -955 -1223 0
782 1167 -1224 0
782 -1167 1224 0
-782 1167 1224 0
-782 -1167 -1224 0
274 1095 -1225 0
274 -1095 1225 0
-274 1095 1225 0
-274 -1095 -1225 0
703 1226 1227 0
703 -1226 -1227 0
-703 1226 -1227 0
-703 -1226 1227 0
164 790 1228 0
164 -790 -1228 0
-164 790 -1228 0
-164 -790 1228 0
1118 1229 1230 0
1118 -1229 -1230 0
-1118 1229 -1230 0
-1118 -1229 1230 0
83 1231 -1232 0
83 -1231 1232 0
-83 1231 1232 0
-83 -1231 -1232 0
141 960 1233 0
141 -960 -1233 0
-141 960 -1233 0
-141 -960 1233 0
1234 1235 1236 0
1234 -1235 -1236 0
-1234 1235 -1236 0
-1234 -1235 1236 0
708 939 1237 0
708 -939 -1237 0
-708 939 -1237 0
-708 -939 1237 0
825 1238 -1239 0
825 -1238 1239 0
-825 1238 1239 0
-825 -1238 -1239 0
138 484 -1147 0
138 -484 1147 0
-138 484 1147 0
-138 -484 -1147 0
783 1004 1240 0
783 -1004 -1240 0
-783 1004 -1240 0
-783 -1004 1240 0
14 652 -1241 0
14 -652 1241 0
-14 652 1241 0
-14 -652 -1241 0
113 873 -1242 0
113 -873 1242 0
-113 873 1242 0
-113 -873 -1242 0
174 801 1243 0
174 -801 -1243 0
-174 801 -1243 0
-174 -801 1243 0
1134 1244 1245 0
1134 -1244 -1245 0
-1134 1244 -1245 0
-1134 -1244 1245 0
529 1121 1246 0
529 -1121 -1246 0
-529 1121 -1246 0
-529 -1121 1246 0
878 1247 -1248 0
878 -1247 1248 0
-878 1247 1248 0
-878 -1247 -1248 0
696 870 893 0
696 -870 -893 0
-696 870 -893 0
-696 -870 893 0
700 1249 -1250 0
700 -1249 1250 0
-700 1249 1250 0
-700 -1249 -1250 0
68 414 -1247 0
68 -414 1247 0
-68 414 1247 0
-68 -414 -1247 0
768 1136 -1251 0
768 -1136 1251 0
-768 1136 1251 0
-768 -1136 -1251 0
1169 1252 1253 0
1169 -1252 -1253 0
-1169 1252 -1253 0
-1169 -1252 1253 0
137 586 -1254 0
137 -586 1254 0
-137 586 1254 0
-137 -586 -1254 0
744 1255 1256 0
744 -1255 -1256 0
-744 1255 -1256 0
-744 -1255 1256 0
845 1257 -1258 0
845 -1257 1258 0
-845 1257 1258 0
-845 -1257 -1258 0
755 1259 1260 0
755 -1259 -1260 0
-755 1259 -1260 0
-755 -1259 1260 0
853 1261 1262 0
853 -1261 -1262 0
-853 1261 -1262 0
-853 -1261 1262 0
251 997 1166 0
251 -997 -1166 0
-251 997 -1166 0
-251 -997 1166 0
218 1024 -1263 0
218 -1024 1263 0
-218 1024 1263 0
-218 -1024 -1263 0
637 677 830 0
637 -677 -830 0
-637 677 -830 0
-637 -677 830 0
11 1229 1264 0
11 -1229 -1264 0
-11 1229 -1264 0
-11 -1229 1264 0
456 1018 -1265 0
456 -1018 1265 0
-456 1018 1265 0
-456 -1018 -1265 0
930 1234 -1266 0
930 -1234 1266 0
-930 1234 1266 0
-930 -1234 -1266 0
681 1267 -1268 0
681 -1267 1268 0
-681 1267 1268 0
-681 -1267 -1268 0
1188 1269 1270 0
1188 -1269 -1270 0
-1188 1269 -1270 0
-1188 -1269 1270 0
664 965 1254 0
664 -965 -1254 0
-664 965 -1254 0
-664 -965 1254 0
880 1271 -1272 0
880 -1271 1272 0
-880 1271 1272 0
-880 -1271 -1272 0
48 1255 -1273 0
48 -1255 1273 0
-48 1255 1273 0
-48 -1255 -1273 0
211 1189 1274 0
211 -1189 -1274 0
-211 1189 -1274 0
-211 -1189 1274 0
1275 1276 -1277 0
1275 -1276 1277 0
-1275 1276 1277 0
-1275 -1276 -1277 0
1047 1278 -1279 0
1047 -1278 1279 0
-1047 1278 1279 0
-1047 -1278 -1279 0
366 1280 -1281 0
366 -1280 1281 0
-366 1280 1281 0
-366 -1280 -1281 0
305 728 1282 0
305 -728 -1282 0
-305 728 -1282 0
-305 -728 1282 0
871 1226 -1283 0
871 -1226 1283 0
-871 1226 1283 0
-871 -1226 -1283 0
922 1284 1285 0
922 -1284 -1285 0
-922 1284 -1285 0
-922 -1284 1285 0
1050 1160 1286 0
1050 -1160 -1286 0
-1050 1160 -1286 0
-1050 -1160 1286 0
1045 1287 1288 0
1045 -1287 -1288 0
-1045 1287 -1288 0
-1045 -1287 1288 0
787 931 -983 0
787 -931 983 0
-787 931 983 0
-787 -931 -983 0
729 1163 1197 0
729 -1163 -1197 0
-729 1163 -1197 0
-729 -1163 1197 0
461 942 -1289 0
461 -942 1289 0
-461 942 1289 0
-461 -942 -1289 0
235 978 -1290 0
235 -978 1290 0
-235 978 1290 0
-235 -978 -1290 0
915 1291 1292 0
915 -1291 -1292 0
-915 1291 -1292 0
-915 -1291 1292 0
311 643 1089 0
311 -643 -1089 0
-311 643 -1089 0
-311 -643 1089 0
674 1293 1294 0
674 -1293 -1294 0
-674 1293 -1294 0
-674 -1293 1294 0
477 902 -1295 0
477 -902 1295 0
-477 902 1295 0
-477 -902 -1295 0
44 675 1263 0
44 -675 -1263 0
-44 675 -1263 0
-44 -675 1263 0
1029 1049 1296 0
1029 -1049 -1296 0
-1029 1049 -1296 0
-1029 -1049 1296 0
295 1297 1298 0
295 -1297 -1298 0
-295 1297 -1298 0
-295 -1297 1298 0
817 1248 1299 0
817 -1248 -1299 0
-817 1248 -1299 0
-817 -1248 1299 0
667 1059 1300 0
667 -1059 -1300 0
-667 1059 -1300 0
-667 -1059 1300 0
464 1301 -1302 0
464 -1301 1302 0
-464 1301 1302 0
-464 -1301 -1302 0
733 1303 -1304 0
733 -1303 1304 0
-733 1303 1304 0
-733 -1303 -1304 0
694 760 -1305 0
694 -760 1305 0
-694 760 1305 0
-694 -760 -1305 0
610 797 -1306 0
610 -797 1306 0
-610 797 1306 0
-610 -797 -1306 0
940 1297 -1307 0
940 -1297 1307 0
-940 1297 1307 0
-940 -1297 -1307 0
81 128 1115 0
81 -128 -1115 0
-81 128 -1115 0
-81 -128 1115 0
686 937 -1296 0
686 -937 1296 0
-686 937 1296 0
-686 -937 -1296 0
1308 1309 -1310 0
1308 -1309 1310 0
-1308 1309 1310 0
-1308 -1309 -1310 0
668 718 -1311 0
668 -718 1311 0
-668 718 1311 0
-668 -718 -1311 0
346 381 979 0
346 -381 -979 0
-346 381 -979 0
-346 -381 979 0
560 977 -1312 0
560 -977 1312 0
-560 977 1312 0
-560 -977 -1312 0
771 1313 1314 0
771 -1313 -1314 0
-771 1313 -1314 0
-771 -1313 1314 0
169 1298 1315 0
169 -1298 -1315 0
-169 1298 -1315 0
-169 -1298 1315 0
523 769 -868 0
523 -769 868 0
-523 769 868 0
-523 -769 -868 0
92 1316 -1317 0
92 -1316 1317 0
-92 1316 1317 0
-92 -1316 -1317 0
892 1204 -1318 0
892 -1204 1318 0
-892 1204 1318 0
-892 -1204 -1318 0
934 1008 1251 0
934 -1008 -1251 0
-934 1008 -1251 0
-934 -1008 1251 0
1086 1319 -1320 0
1086 -1319 1320 0
-1086 1319 1320 0
-1086 -1319 -1320 0
832 1321 -1322 0
832 -1321 1322 0
-832 1321 1322 0
-832 -1321 -1322 0
469 682 -690 0
469 -682 690 0
-469 682 690 0
-469 -682 -690 0
618 1319 -1323 0
618 -1319 1323 0
-618 1319 1323 0
-618 -1319 -1323 0
110 1324 -1325 0
110 -1324 1325 0
-110 1324 1325 0
-110 -1324 -1325 0
847 1326 -1327 0
847 -1326 1327 0
-847 1326 1327 0
-847 -1326 -1327 0
131 798 -1328 0
131 -798 1328 0
-131 798 1328 0
-131 -798 -1328 0
702 1308 1328 0
702 -1308 -1328 0
-702 1308 -1328 0
-702 -1308 1328 0
620 1171 1329 0
620 -1171 -1329 0
-620 1171 -1329 0
-620 -1171 1329 0
491 683 -1330 0
491 -683 1330 0
-491 683 1330 0
-491 -683 -1330 0
296 1331 -1332 0
296 -1331 1332 0
-296 1331 1332 0
-296 -1331 -1332 0
1025 1175 -1333 0
1025 -1175 1333 0
-1025 1175 1333 0
-1025 -1175 -1333 0
253 1057 1208 0
253 -1057 -1208 0
-253 1057 -1208 0
-253 -1057 1208 0
645 1000 -1312 0
645 -1000 1312 0
-645 1000 1312 0
-645 -1000 -1312 0
773 1211 -1334 0
773 -1211 1334 0
-773 1211 1334 0
-773 -1211 -1334 0
426 935 1289 0
426 -935 -1289 0
-426 935 -1289 0
-426 -935 1289 0
503 827 1335 0
503 -827 -1335 0
-503 827 -1335 0
-503 -827 1335 0
1079 1336 -1337 0
1079 -1336 1337 0
-1079 1336 1337 0
-1079 -1336 -1337 0
791 911 933 0
791 -911 -933 0
-791 911 -933 0
-791 -911 933 0
800 1306 -1326 0
800 -1306 1326 0
-800 1306 1326 0
-800 -1306 -1326 0
956 1275 -1286 0
956 -1275 1286 0
-956 1275 1286 0
-956 -1275 -1286 0
387 495 1338 0
387 -495 -1338 0
-387 495 -1338 0
-387 -495 1338 0
741 1339 1340 0
741 -1339 -1340 0
-741 1339 -1340 0
-741 -1339 1340 0
808 1335 1341 0
808 -1335 -1341 0
-808 1335 -1341 0
-808 -1335 1341 0
600 875 -1342 0
600 -875 1342 0
-600 875 1342 0
-600 -875 -1342 0
475 1142 1343 0
475 -1142 -1343 0
-475 1142 -1343 0
-475 -1142 1343 0
428 1064 -1267 0
428 -1064 1267 0
-428 1064 1267 0
-428 -1064 -1267 0
32 1344 -1345 0
32 -1344 1345 0
-32 1344 1345 0
-32 -1344 -1345 0
421 1110 -1235 0
421 -1110 1235 0
-421 1110 1235 0
-421 -1110 -1235 0
1199 1346 1347 0
1199 -1346 -1347 0
-1199 1346 -1347 0
-1199 -1346 1347 0
862 1348 -1349 0
862 -1348 1349 0
-862 1348 1349 0
-862 -1348 -1349 0
17 1207 1350 0
17 -1207 -1350 0
-17 1207 -1350 0
-17 -1207 1350 0
958 1127 1351 0
958 -1127 -1351 0
-958 1127 -1351 0
-958 -1127 1351 0
187 1352 1353 0
187 -1352 -1353 0
-187 1352 -1353 0
-187 -1352 1353 0
328 1065 -1278 0
328 -1065 1278 0
-328 1065 1278 0
-328 -1065 -1278 0
595 897 -1354 0
595 -897 1354 0
-595 897 1354 0
-595 -897 -1354 0
444 725 1355 0
444 -725 -1355 0
-444 725 -1355 0
-444 -725 1355 0
193 1087 -1287 0
193 -1087 1287 0
-193 1087 1287 0
-193 -1087 -1287 0
969 1269 -1356 0
969 -1269 1356 0
-969 1269 1356 0
-969 -1269 -1356 0
635 1357 -1358 0
635 -1357 1358 0
-635 1357 1358 0
-635 -1357 -1358 0
863 1359 -1360 0
863 -1359 1360 0
-863 1359 1360 0
-863 -1359 -1360 0
288 1026 1361 0
288 -1026 -1361 0
-288 1026 -1361 0
-288 -1026 1361 0
957 1148 1362 0
957 -1148 -1362 0
-957 1148 -1362 0
-957 -1148 1362 0
593 1231 -1288 0
593 -1231 1288 0
-593 1231 1288 0
-593 -1231 -1288 0
154 470 1265 0
154 -470 -1265 0
-154 470 -1265 0
-154 -470 1265 0
107 1138 -1363 0
107 -1138 1363 0
-107 1138 1363 0
-107 -1138 -1363 0
697 972 -1364 0
697 -972 1364 0
-697 972 1364 0
-697 -972 -1364 0
923 1365 1366 0
923 -1365 -1366 0
-923 1365 -1366 0
-923 -1365 1366 0
1187 1259 1331 0
1187 -1259 -1331 0
-1187 1259 -1331 0
-1187 -1259 1331 0
1339 1367 1368 0
1339 -1367 -1368 0
-1339 1367 -1368 0
-1339 -1367 1368 0
519 1196 1369 0
519 -1196 -1369 0
-519 1196 -1369 0
-519 -1196 1369 0
262 269 1370 0
262 -269 -1370 0
-262 269 -1370 0
-262 -269 1370 0
541 1177 -1371 0
541 -1177 1371 0
-541 1177 1371 0
-541 -1177 -1371 0
314 1125 -1372 0
314 -1125 1372 0
-314 1125 1372 0
-314 -1125 -1372 0
275 471 -1324 0
275 -471 1324 0
-275 471 1324 0
-275 -471 -1324 0
1373 1374 1375 0
1373 -1374 -1375 0
-1373 1374 -1375 0
-1373 -1374 1375 0
1122 1252 -1276 0
1122 -1252 1276 0
-1122 1252 1276 0
-1122 -1252 -1276 0
1062 1376 1377 0
1062 -1376 -1377 0
-1062 1376 -1377 0
-1062 -1376 1377 0
485 1005 1378 0
485 -1005 -1378 0
-485 1005 -1378 0
-485 -1005 1378 0
1369 1379 1380 0
1369 -1379 -1380 0
-1369 1379 -1380 0
-1369 -1379 1380 0
672 1224 1346 0
672 -1224 -1346 0
-672 1224 -1346 0
-672 -1224 1346 0
1370 1381 1382 0
1370 -1381 -1382 0
-1370 1381 -1382 0
-1370 -1381 1382 0
520 655 -1383 0
520 -655 1383 0
-520 655 1383 0
-520 -655 -1383 0
1222 1344 1384 0
1222 -1344 -1384 0
-1222 1344 -1384 0
-1222 -1344 1384 0
812 1364 -1385 0
812 -1364 1385 0
-812 1364 1385 0
-812 -1364 -1385 0
199 1066 -1386 0
199 -1066 1386 0
-199 1066 1386 0
-199 -1066 -1386 0
823 839 -1336 0
823 -839 1336 0
-823 839 1336 0
-823 -839 -1336 0
576 638 1260 0
576 -638 -1260 0
-576 638 -1260 0
-576 -638 1260 0
358 770 1387 0
358 -770 -1387 0
-358 770 -1387 0
-358 -770 1387 0
518 833 927 0
518 -833 -927 0
-518 833 -927 0
-518 -833 927 0
1074 1388 1389 0
1074 -1388 -1389 0
-1074 1388 -1389 0
-1074 -1388 1389 0
1107 1390 1391 0
1107 -1390 -1391 0
-1107 1390 -1391 0
-1107 -1390 1391 0
584 704 -838 0
584 -704 838 0
-584 704 838 0
-584 -704 -838 0
515 1096 -1392 0
515 -1096 1392 0
-515 1096 1392 0
-515 -1096 -1392 0
1132 1271 -1357 0
1132 -1271 1357 0
-1132 1271 1357 0
-1132 -1271 -1357 0
45 215 -1270 0
45 -215 1270 0
-45 215 1270 0
-45 -215 -1270 0
1141 1393 1394 0
1141 -1393 -1394 0
-1141 1393 -1394 0
-1141 -1393 1394 0
1143 1343 1395 0
1143 -1343 -1395 0
-1143 1343 -1395 0
-1143 -1343 1395 0
828 834 -1396 0
828 -834 1396 0
-828 834 1396 0
-828 -834 -1396 0
1071 1350 -1397 0
1071 -1350 1397 0
-1071 1350 1397 0
-1071 -1350 -1397 0
1243 1316 1398 0
1243 -1316 -1398 0
-1243 1316 -1398 0
-1243 -1316 1398 0
740 1200 -1399 0
740 -1200 1399 0
-740 1200 1399 0
-740 -1200 -1399 0
552 851 -1223 0
552 -851 1223 0
-552 851 1223 0
-552 -851 -1223 0
904 1400 1401 0
904 -1400 -1401 0
-904 1400 -1401 0
-904 -1400 1401 0
745 1402 -1403 0
745 -1402 1403 0
-745 1402 1403 0
-745 -1402 -1403 0
557 1218 -1301 0
557 -1218 1301 0
-557 1218 1301 0
-557 -1218 -1301 0
1302 1404 -1405 0
1302 -1404 1405 0
-1302 1404 1405 0
-1302 -1404 -1405 0
224 301 1406 0
224 -301 -1406 0
-224 301 -1406 0
-224 -301 1406 0
498 1137 -1198 0
498 -1137 1198 0
-498 1137 1198 0
-498 -1137 -1198 0
406 784 1407 0
406 -784 -1407 0
-406 784 -1407 0
-406 -784 1407 0
1216 1309 1408 0
1216 -1309 -1408 0
-1216 1309 -1408 0
-1216 -1309 1408 0
220 293 1036 0
220 -293 -1036 0
-220 293 -1036 0
-220 -293 1036 0
1022 1105 1139 0
1022 -1105 -1139 0
-1022 1105 -1139 0
-1022 -1105 1139 0
374 1409 1410 0
374 -1409 -1410 0
-374 1409 -1410 0
-374 -1409 1410 0
65 265 813 0
65 -265 -813 0
-65 265 -813 0
-65 -265 813 0
449 1172 -1411 0
449 -1172 1411 0
-449 1172 1411 0
-449 -1172 -1411 0
77 1161 -1412 0
77 -1161 1412 0
-77 1161 1412 0
-77 -1161 -1412 0
27 814 1413 0
27 -814 -1413 0
-27 814 -1413 0
-27 -814 1413 0
1034 1072 1414 0
1034 -1072 -1414 0
-1034 1072 -1414 0
-1034 -1072 1414 0
631 820 -1379 0
631 -820 1379 0
-631 820 1379 0
-631 -820 -1379 0
1341 1407 -1415 0
1341 -1407 1415 0
-1341 1407 1415 0
-1341 -1407 -1415 0
351 500 1416 0
351 -500 -1416 0
-351 500 -1416 0
-351 -500 1416 0
564 1249 -1417 0
564 -1249 1417 0
-564 1249 1417 0
-564 -1249 -1417 0
1373 1388 1418 0
1373 -1388 -1418 0
-1373 1388 -1418 0
-1373 -1388 1418 0
86 1202 -1291 0
86 -1202 1291 0
-86 1202 1291 0
-86 -1202 -1291 0
1113 1419 -1420 0
1113 -1419 1420 0
-1113 1419 1420 0
-1113 -1419 -1420 0
318 1280 1421 0
318 -1280 -1421 0
-318 1280 -1421 0
-318 -1280 1421 0
651 1422 -1423 0
651 -1422 1423 0
-651 1422 1423 0
-651 -1422 -1423 0
549 883 1424 0
549 -883 -1424 0
-549 883 -1424 0
-549 -883 1424 0
604 1425 1426 0
604 -1425 -1426 0
-604 1425 -1426 0
-604 -1425 1426 0
147 254 998 0
147 -254 -998 0
-147 254 -998 0
-147 -254 998 0
984 1402 -1422 0
984 -1402 1422 0
-984 1402 1422 0
-984 -1402 -1422 0
6 526 -1427 0
6 -526 1427 0
-6 526 1427 0
-6 -526 -1427 0
1277 1352 -1428 0
1277 -1352 1428 0
-1277 1352 1428 0
-1277 -1352 -1428 0
1042 1393 -1429 0
1042 -1393 1429 0
-1042 1393 1429 0
-1042 -1393 -1429 0
730 1103 -1430 0
730 -1103 1430 0
-730 1103 1430 0
-730 -1103 -1430 0
476 1091 -1378 0
476 -1091 1378 0
-476 1091 1378 0
-476 -1091 -1378 0
306 884 -1431 0
306 -884 1431 0
-306 884 1431 0
-306 -884 -1431 0
976 1128 -1303 0
976 -1128 1303 0
-976 1128 1303 0
-976 -1128 -1303 0
780 980 1272 0
780 -980 -1272 0
-780 980 -1272 0
-780 -980 1272 0
973 975 -1432 0
973 -975 1432 0
-973 975 1432 0
-973 -975 -1432 0
1082 1206 1293 0
1082 -1206 -1293 0
-1082 1206 -1293 0
-1082 -1206 1293 0
746 858 1242 0
746 -858 -1242 0
-746 858 -1242 0
-746 -858 1242 0
1283 1374 1433 0
1283 -1374 -1433 0
-1283 1374 -1433 0
-1283 -1374 1433 0
277 545 1185 0
277 -545 -1185 0
-277 545 -1185 0
-277 -545 1185 0
93 178 1404 0
93 -178 -1404 0
-93 178 -1404 0
-93 -178 1404 0
142 1315 1381 0
142 -1315 -1381 0
-142 1315 -1381 0
-142 -1315 1381 0
1376 1434 1435 0
1376 -1434 -1435 0
-1376 1434 -1435 0
-1376 -1434 1435 0
148 298 1375 0
148 -298 -1375 0
-148 298 -1375 0
-148 -298 1375 0
362 424 1436 0
362 -424 -1436 0
-362 424 -1436 0
-362 -424 1436 0
1108 1201 -1359 0
1108 -1201 1359 0
-1108 1201 1359 0
-1108 -1201 -1359 0
507 661 1356 0
507 -661 -1356 0
-507 661 -1356 0
-507 -661 1356 0
1372 1423 1437 0
1372 -1423 -1437 0
-1372 1423 -1437 0
-1372 -1423 1437 0
425 879 1321 0
425 -879 -1321 0
-425 879 -1321 0
-425 -879 1321 0
281 626 -1413 0
281 -626 1413 0
-281 626 1413 0
-281 -626 -1413 0
478 573 -1337 0
478 -573 1337 0
-478 573 1337 0
-478 -573 -1337 0
684 910 -996 0
684 -910 996 0
-684 910 996 0
-684 -910 -996 0
402 1438 -1439 0
402 -1438 1439 0
-402 1438 1439 0
-402 -1438 -1439 0
1016 1180 -1440 0
1016 -1180 1440 0
-1016 1180 1440 0
-1016 -1180 -1440 0
1014 1083 1313 0
1014 -1083 -1313 0
-1014 1083 -1313 0
-1014 -1083 1313 0
465 546 -1019 0
465 -546 1019 0
-465 546 1019 0
-465 -546 -1019 0
1433 1441 1442 0
1433 -1441 -1442 0
-1433 1441 -1442 0
-1433 -1441 1442 0
382 1184 -1311 0
382 -1184 1311 0
-382 1184 1311 0
-382 -1184 -1311 0
807 869 -1233 0
807 -869 1233 0
-807 869 1233 0
-807 -869 -1233 0
322 331 809 0
322 -331 -809 0
-322 331 -809 0
-322 -331 809 0
924 1237 -1443 0
924 -1237 1443 0
-924 1237 1443 0
-924 -1237 -1443 0
152 1190 1415 0
152 -1190 -1415 0
-152 1190 -1415 0
-152 -1190 1415 0
273 1109 -1241 0
273 -1109 1241 0
-273 1109 1241 0
-273 -1109 -1241 0
1212 1314 1444 0
1212 -1314 -1444 0
-1212 1314 -1444 0
-1212 -1314 1444 0
181 1412 1445 0
181 -1412 -1445 0
-181 1412 -1445 0
-181 -1412 1445 0
1186 1232 -1244 0
1186 -1232 1244 0
-1186 1232 1244 0
-1186 -1232 -1244 0
756 1294 -1367 0
756 -1294 1367 0
-756 1294 1367 0
-756 -1294 -1367 0
320 673 -687 0
320 -673 687 0
-320 673 687 0
-320 -673 -687 0
42 283 -1446 0
42 -283 1446 0
-42 283 1446 0
-42 -283 -1446 0
994 1292 -1447 0
994 -1292 1447 0
-994 1292 1447 0
-994 -1292 -1447 0
1227 1354 1385 0
1227 -1354 -1385 0
-1227 1354 -1385 0
-1227 -1354 1385 0
1073 1448 -1449 0
1073 -1448 1449 0
-1073 1448 1449 0
-1073 -1448 -1449 0
324 1084 1191 0
324 -1084 -1191 0
-324 1084 -1191 0
-324 -1084 1191 0
985 1325 1450 0
985 -1325 -1450 0
-985 1325 -1450 0
-985 -1325 1450 0
1451 1452 1453 0
1451 -1452 -1453 0
-1451 1452 -1453 0
-1451 -1452 1453 0
571 818 1454 0
571 -818 -1454 0
-571 818 -1454 0
-571 -818 1454 0
161 407 1182 0
161 -407 -1182 0
-161 407 -1182 0
-161 -407 1182 0
951 1455 1456 0
951 -1455 -1456 0
-951 1455 -1456 0
-951 -1455 1456 0
479 705 1151 0
479 -705 -1151 0
-479 705 -1151 0
-479 -705 1151 0
802 1371 1451 0
802 -1371 -1451 0
-802 1371 -1451 0
-802 -1371 1451 0
1100 1149 1457 0
1100 -1149 -1457 0
-1100 1149 -1457 0
-1100 -1149 1457 0
3 101 1458 0
3 -101 -1458 0
-3 101 -1458 0
-3 -101 1458 0
57 71 -1459 0
57 -71 1459 0
-57 71 1459 0
-57 -71 -1459 0
403 1236 -1460 0
403 -1236 1460 0
-403 1236 1460 0
-403 -1236 -1460 0
75 990 1461 0
75 -990 -1461 0
-75 990 -1461 0
-75 -990 1461 0
1116 1462 -1463 0
1116 -1462 1463 0
-1116 1462 1463 0
-1116 -1462 -1463 0
133 1155 -1304 0
133 -1155 1304 0
-133 1155 1304 0
-133 -1155 -1304 0
171 202 -1060 0
171 -202 1060 0
-171 202 1060 0
-171 -202 -1060 0
78 1353 -1365 0
78 -1353 1365 0
-78 1353 1365 0
-78 -1353 -1365 0
555 1330 -1431 0
555 -1330 1431 0
-555 1330 1431 0
-555 -1330 -1431 0
1032 1464 1465 0
1032 -1464 -1465 0
-1032 1464 -1465 0
-1032 -1464 1465 0
15 466 -1192 0
15 -466 1192 0
-15 466 1192 0
-15 -466 -1192 0
734 900 1448 0
734 -900 -1448 0
-734 900 -1448 0
-734 -900 1448 0
1156 1327 -1429 0
1156 -1327 1429 0
-1156 1327 1429 0
-1156 -1327 -1429 0
159 587 -1466 0
159 -587 1466 0
-159 587 1466 0
-159 -587 -1466 0
1106 1443 -1467 0
1106 -1443 1467 0
-1106 1443 1467 0
-1106 -1443 -1467 0
1053 1455 -1468 0
1053 -1455 1468 0
-1053 1455 1468 0
-1053 -1455 -1468 0
191 1193 1469 0
191 -1193 -1469 0
-191 1193 -1469 0
-191 -1193 1469 0
205 256 1101 0
205 -256 -1101 0
-205 256 -1101 0
-205 -256 1101 0
404 1446 -1470 0
404 -1446 1470 0
-404 1446 1470 0
-404 -1446 -1470 0
835 1338 1389 0
835 -1338 -1389 0
-835 1338 -1389 0
-835 -1338 1389 0
662 788 1471 0
662 -788 -1471 0
-662 788 -1471 0
-662 -788 1471 0
623 1067 -1217 0
623 -1067 1217 0
-623 1067 1217 0
-623 -1067 -1217 0
149 182 -1447 0
149 -182 1447 0
-149 182 1447 0
-149 -182 -1447 0
225 903 -1150 0
225 -903 1150 0
-225 903 1150 0
-225 -903 -1150 0
433 572 -1472 0
433 -572 1472 0
-433 572 1472 0
-433 -572 -1472 0
172 1473 1474 0
172 -1473 -1474 0
-172 1473 -1474 0
-172 -1473 1474 0
601 842 1466 0
601 -842 -1466 0
-601 842 -1466 0
-601 -842 1466 0
605 919 -987 0
605 -919 987 0
-605 919 987 0
-605 -919 -987 0
20 59 -715 0
20 -59 715 0
-20 59 715 0
-20 -59 -715 0
765 966 1377 0
765 -966 -1377 0
-765 966 -1377 0
-765 -966 1377 0
12 1441 1471 0
12 -1441 -1471 0
-12 1441 -1471 0
-12 -1441 1471 0
735 1020 -1124 0
735 -1020 1124 0
-735 1020 1124 0
-735 -1020 -1124 0
799 1027 -1392 0
799 -1027 1392 0
-799 1027 1392 0
-799 -1027 -1392 0
1144 1205 -1475 0
1144 -1205 1475 0
-1144 1205 1475 0
-1144 -1205 -1475 0
54 1225 -1398 0
54 -1225 1398 0
-54 1225 1398 0
-54 -1225 -1398 0
146 1088 -1323 0
146 -1088 1323 0
-146 1088 1323 0
-146 -1088 -1323 0
678 1131 1476 0
678 -1131 -1476 0
-678 1131 -1476 0
-678 -1131 1476 0
173 1266 1462 0
173 -1266 -1462 0
-173 1266 -1462 0
-173 -1266 1462 0
659 785 -1458 0
659 -785 1458 0
-659 785 1458 0
-659 -785 -1458 0
542 553 -1238 0
542 -553 1238 0
-542 553 1238 0
-542 -553 -1238 0
1010 1281 -1358 0
1010 -1281 1358 0
-1010 1281 1358 0
-1010 -1281 -1358 0
162 701 1133 0
162 -701 -1133 0
-162 701 -1133 0
-162 -701 1133 0
9 278 1383 0
9 -278 -1383 0
-9 278 -1383 0
-9 -278 1383 0
35 355 1257 0
35 -355 -1257 0
-35 355 -1257 0
-35 -355 1257 0
928 1119 -1477 0
928 -1119 1477 0
-928 1119 1477 0
-928 -1119 -1477 0
1279 1366 -1450 0
1279 -1366 1450 0
-1279 1366 1450 0
-1279 -1366 -1450 0
963 1478 -1479 0
963 -1478 1479 0
-963 1478 1479 0
-963 -1478 -1479 0
323 1264 -1480 0
323 -1264 1480 0
-323 1264 1480 0
-323 -1264 -1480 0
763 1258 -1480 0
763 -1258 1480 0
-763 1258 1480 0
-763 -1258 -1480 0
1080 1152 -1481 0
1080 -1152 1481 0
-1080 1152 1481 0
-1080 -1152 -1481 0
916 1274 -1405 0
916 -1274 1405 0
-916 1274 1405 0
-916 -1274 -1405 0
680 890 1454 0
680 -890 -1454 0
-680 890 -1454 0
-680 -890 1454 0
213 1170 1419 0
213 -1170 -1419 0
-213 1170 -1419 0
-213 -1170 1419 0
1457 1469 1482 0
1457 -1469 -1482 0
-1457 1469 -1482 0
-1457 -1469 1482 0
365 590 -1483 0
365 -590 1483 0
-365 590 1483 0
-365 -590 -1483 0
607 752 1126 0
607 -752 -1126 0
-607 752 -1126 0
-607 -752 1126 0
87 1417 1472 0
87 -1417 -1472 0
-87 1417 -1472 0
-87 -1417 1472 0
481 805 -1203 0
481 -805 1203 0
-481 805 1203 0
-481 -805 -1203 0
777 846 -1117 0
777 -846 1117 0
-777 846 1117 0
-777 -846 -1117 0
102 325 -1437 0
102 -325 1437 0
-102 325 1437 0
-102 -325 -1437 0
143 988 1459 0
143 -988 -1459 0
-143 988 -1459 0
-143 -988 1459 0
627 1355 -1476 0
627 -1355 1476 0
-627 1355 1476 0
-627 -1355 -1476 0
1158 1456 1484 0
1158 -1456 -1484 0
-1158 1456 -1484 0
-1158 -1456 1484 0
692 1123 -1485 0
692 -1123 1485 0
-692 1123 1485 0
-692 -1123 -1485 0
459 1382 1486 0
459 -1382 -1486 0
-459 1382 -1486 0
-459 -1382 1486 0
669 1159 1195 0
669 -1159 -1195 0
-669 1159 -1195 0
-669 -1159 1195 0
867 1209 1487 0
867 -1209 -1487 0
-867 1209 -1487 0
-867 -1209 1487 0
185 929 1488 0
185 -929 -1488 0
-185 929 -1488 0
-185 -929 1488 0
778 794 -1408 0
778 -794 1408 0
-778 794 1408 0
-778 -794 -1408 0
155 1048 1489 0
155 -1048 -1489 0
-155 1048 -1489 0
-155 -1048 1489 0
194 981 -1424 0
194 -981 1424 0
-194 981 1424 0
-194 -981 -1424 0
196 1021 1387 0
196 -1021 -1387 0
-196 1021 -1387 0
-196 -1021 1387 0
578 1215 -1485 0
578 -1215 1485 0
-578 1215 1485 0
-578 -1215 -1485 0
1076 1145 1168 0
1076 -1145 -1168 0
-1076 1145 -1168 0
-1076 -1145 1168 0
633 1394 1478 0
633 -1394 -1478 0
-633 1394 -1478 0
-633 -1394 1478 0
165 624 656 0
165 -624 -656 0
-165 624 -656 0
-165 -624 656 0
1111 1475 1481 0
1111 -1475 -1481 0
-1111 1475 -1481 0
-1111 -1475 1481 0
772 1434 -1440 0
772 -1434 1440 0
-772 1434 1440 0
-772 -1434 -1440 0
1030 1176 -1461 0
1030 -1176 1461 0
-1030 1176 1461 0
-1030 -1176 -1461 0
657 676 -1464 0
657 -676 1464 0
-657 676 1464 0
-657 -676 -1464 0
810 887 1256 0
810 -887 -1256 0
-810 887 -1256 0
-810 -887 1256 0
487 761 1332 0
487 -761 -1332 0
-487 761 -1332 0
-487 -761 1332 0
329 394 -1245 0
329 -394 1245 0
-329 394 1245 0
-329 -394 -1245 0
337 1129 1442 0
337 -1129 -1442 0
-337 1129 -1442 0
-337 -1129 1442 0
299 670 991 0
299 -670 -991 0
-299 670 -991 0
-299 -670 991 0
888 1011 -1490 0
888 -1011 1490 0
-888 1011 1490 0
-888 -1011 -1490 0
1146 1162 1427 0
1146 -1162 -1427 0
-1146 1162 -1427 0
-1146 -1162 1427 0
242 970 1491 0
242 -970 -1491 0
-242 970 -1491 0
-242 -970 1491 0
332 1409 -1425 0
332 -1409 1425 0
-332 1409 1425 0
-332 -1409 -1425 0
482 567 -946 0
482 -567 946 0
-482 567 946 0
-482 -567 -946 0
492 720 -1081 0
492 -720 1081 0
-492 720 1081 0
-492 -720 -1081 0
617 914 -1470 0
617 -914 1470 0
-617 914 1470 0
-617 -914 -1470 0
167 649 1432 0
167 -649 -1432 0
-167 649 -1432 0
-167 -649 1432 0
1362 1395 1397 0
1362 -1395 -1397 0
-1362 1395 -1397 0
-1362 -1395 1397 0
840 1334 -1430 0
840 -1334 1430 0
-840 1334 1430 0
-840 -1334 -1430 0
509 1165 1230 0
509 -1165 -1230 0
-509 1165 -1230 0
-509 -1165 1230 0
885 1012 1114 0
885 -1012 -1114 0
-885 1012 -1114 0
-885 -1012 1114 0
388 947 986 0
388 -947 -986 0
-388 947 -986 0
-388 -947 986 0
1009 1406 -1426 0
1009 -1406 1426 0
-1009 1406 1426 0
-1009 -1406 -1426 0
653 908 -926 0
653 -908 926 0
-653 908 926 0
-653 -908 -926 0
134 340 -1360 0
134 -340 1360 0
-134 340 1360 0
-134 -340 -1360 0
450 1307 1490 0
450 -1307 -1490 0
-450 1307 -1490 0
-450 -1307 1490 0
757 1120 -1460 0
757 -1120 1460 0
-757 1120 1460 0
-757 -1120 -1460 0
1351 1400 1483 0
1351 -1400 -1483 0
-1351 1400 -1483 0
-1351 -1400 1483 0
385 779 1284 0
385 -779 -1284 0
-385 779 -1284 0
-385 -779 1284 0
96 550 726 0
96 -550 -726 0
-96 550 -726 0
-96 -550 726 0
795 1438 -1492 0
795 -1438 1492 0
-795 1438 1492 0
-795 -1438 -1492 0
309 579 995 0
309 -579 -995 0
-309 579 -995 0
-309 -579 995 0
949 1001 -1317 0
949 -1001 1317 0
-949 1001 1317 0
-949 -1001 -1317 0
90 1465 1493 0
90 -1465 -1493 0
-90 1465 -1493 0
-90 -1465 1493 0
959 1300 1473 0
959 -1300 -1473 0
-959 1300 -1473 0
-959 -1300 1473 0
287 1099 1487 0
287 -1099 -1487 0
-287 1099 -1487 0
-287 -1099 1487 0
1261 1348 -1489 0
1261 -1348 1489 0
-1261 1348 1489 0
-1261 -1348 -1489 0
621 1322 -1396 0
621 -1322 1396 0
-621 1322 1396 0
-621 -1322 -1396 0
245 710 864 0
245 -710 -864 0
-245 710 -864 0
-245 -710 864 0
543 1153 -1421 0
543 -1153 1421 0
-543 1153 1421 0
-543 -1153 -1421 0
289 753 -1428 0
289 -753 1428 0
-289 753 1428 0
-289 -753 -1428 0
719 852 -1452 0
719 -852 1452 0
-719 852 1452 0
-719 -852 -1452 0
175 270 -1290 0
175 -270 1290 0
-175 270 1290 0
-175 -270 -1290 0
504 1253 -1494 0
504 -1253 1494 0
-504 1253 1494 0
-504 -1253 -1494 0
447 815 881 0
447 -815 -881 0
-447 815 -881 0
-447 -815 881 0
139 882 -1495 0
139 -882 1495 0
-139 882 1495 0
-139 -882 -1495 0
208 221 1039 0
208 -221 -1039 0
-208 221 -1039 0
-208 -221 1039 0
73 219 1453 0
73 -219 -1453 0
-73 219 -1453 0
-73 -219 1453 0
176 558 -1093 0
176 -558 1093 0
-176 558 1093 0
-176 -558 -1093 0
367 727 743 0
367 -727 -743 0
-367 727 -743 0
-367 -727 743 0
188 1380 1449 0
188 -1380 -1449 0
-188 1380 -1449 0
-188 -1380 1449 0
544 1262 1273 0
544 -1262 -1273 0
-544 1262 -1273 0
-544 -1262 1273 0
501 1282 1295 0
501 -1282 -1295 0
-501 1282 -1295 0
-501 -1282 1295 0
368 821 -1496 0
368 -821 1496 0
-368 821 1496 0
-368 -821 -1496 0
290 1210 -1329 0
290 -1210 1329 0
-290 1210 1329 0
-290 -1210 -1329 0
33 849 -1488 0
33 -849 1488 0
-33 849 1488 0
-33 -849 -1488 0
108 410 -1463 0
108 -410 1463 0
-108 410 1463 0
-108 -410 -1463 0
423 1494 -1497 0
423 -1494 1497 0
-423 1494 1497 0
-423 -1494 -1497 0
1102 1285 -1361 0
1102 -1285 1361 0
-1102 1285 1361 0
-1102 -1285 -1361 0
359 1439 1479 0
359 -1439 -1479 0
-359 1439 -1479 0
-359 -1439 1479 0
738 865 -1498 0
738 -865 1498 0
-738 865 1498 0
-738 -865 -1498 0
18 711 1077 0
18 -711 -1077 0
-18 711 -1077 0
-18 -711 1077 0
758 843 -1228 0
758 -843 1228 0
-758 843 1228 0
-758 -843 -1228 0
999 1299 1436 0
999 -1299 -1436 0
-999 1299 -1436 0
-999 -1299 1436 0
222 1090 -1310 0
222 -1090 1310 0
-222 1090 1310 0
-222 -1090 -1310 0
1305 1477 -1499 0
1305 -1477 1499 0
-1305 1477 1499 0
-1305 -1477 -1499 0
1043 1112 1219 0
1043 -1112 -1219 0
-1043 1112 -1219 0
-1043 -1112 1219 0
356 493 -1496 0
356 -493 1496 0
-356 493 1496 0
-356 -493 -1496 0
170 228 1054 0
170 -228 -1054 0
-170 228 -1054 0
-170 -228 1054 0
1052 1240 -1386 0
1052 -1240 1386 0
-1052 1240 1386 0
-1052 -1240 -1386 0
1268 1349 1363 0
1268 -1349 -1363 0
-1268 1349 -1363 0
-1268 -1349 1363 0
1368 1384 -1403 0
1368 -1384 1403 0
-1368 1384 1403 0
-1368 -1384 -1403 0
312 1444 1499 0
312 -1444 -1499 0
-312 1444 -1499 0
-312 -1444 1499 0
236 284 489 0
236 -284 -489 0
-236 284 -489 0
-236 -284 489 0
992 1345 1491 0
992 -1345 -1491 0
-992 1345 -1491 0
-992 -1345 1491 0
1075 1250 1390 0
1075 -1250 -1390 0
-1075 1250 -1390 0
-1075 -1250 1390 0
932 1486 -1493 0
932 -1486 1493 0
-932 1486 1493 0
-932 -1486 -1493 0
111 736 1342 0
111 -736 -1342 0
-111 736 -1342 0
-111 -736 1342 0
1181 1246 1418 0
1181 -1246 -1418 0
-1181 1246 -1418 0
-1181 -1246 1418 0
603 1002 1213 0
603 -1002 -1213 0
-603 1002 -1213 0
-603 -1002 1213 0
527 1340 -1495 0
527 -1340 1495 0
-527 1340 1495 0
-527 -1340 -1495 0
1078 1482 1500 0
1078 -1482 -1500 0
-1078 1482 -1500 0
-1078 -1482 1500 0
1318 1333 -1420 0
1318 -1333 1420 0
-1318 1333 1420 0
-1318 -1333 -1420 0
967 1006 -1411 0
967 -1006 1411 0
-967 1006 1411 0
-967 -1006 -1411 0
30 1178 -1497 0
30 -1178 1497 0
-30 1178 1497 0
-30 -1178 -1497 0
114 315 -901 0
114 -315 901 0
-114 315 901 0
-114 -315 -901 0
326 614 751 0
326 -614 -751 0
-326 614 -751 0
-326 -614 751 0
1391 1414 -1467 0
1391 -1414 1467 0
-1391 1414 1467 0
-1391 -1414 -1467 0
21 1041 1104 0
21 -1041 -1104 0
-21 1041 -1104 0
-21 -1041 1104 0
796 1037 1445 0
796 -1037 -1445 0
-796 1037 -1445 0
-796 -1037 1445 0
36 415 1474 0
36 -415 -1474 0
-36 415 -1474 0
-36 -415 1474 0
84 1028 1220 0
84 -1028 -1220 0
-84 1028 -1220 0
-84 -1028 1220 0
1031 1058 -1435 0
1031 -1058 1435 0
-1031 1058 1435 0
-1031 -1058 -1435 0
179 216 1401 0
179 -216 -1401 0
-179 216 -1401 0
-179 -216 1401 0
140 230 -1500 0
140 -230 1500 0
-140 230 1500 0
-140 -230 -1500 0
429 574 -1347 0
429 -574 1347 0
-429 574 1347 0
-429 -574 -1347 0
1221 1320 1416 0
1221 -1320 -1416 0
-1221 1320 -1416 0
-1221 -1320 1416 0
961 1097 1410 0
961 -1097 -1410 0
-961 1097 -1410 0
-961 -1097 1410 0
582 953 -1484 0
582 -953 1484 0
-582 953 1484 0
-582 -953 -1484 0
665 906 -1157 0
665 -906 1157 0
-665 906 1157 0
-665 -906 -1157 0
713 1183 1468 0
713 -1183 -1468 0
-713 1183 -1468 0
-713 -1183 1468 0
490 1239 -1492 0
490 -1239 1492 0
-490 1239 1492 0
-490 -1239 -1492 0
1023 1399 -1498 0
1023 -1399 1498 0
-1023 1399 1498 0
-1023 -1399 -1498 0
