c description: Tseitin formula on random 3-regular graph on 600 verices, with odd charge
c generator: CNFgen (0.9.6)
c copyright: (C) 2012-2026 Massimo Lauria <massimo.lauria@uniroma1.it>
c url: https://massimolauria.net/cnfgen
c command line: cnfgen tseitin 600 3
c
p cnf 900 2400
1 2 -3 0
1 -2 3 0
-1 2 3 0
-1 -2 -3 0
4 5 6 0
4 -5 -6 0
-4 5 -6 0
-4 -5 6 0
7 8 9 0
7 -8 -9 0
-7 8 -9 0
-7 -8 9 0
10 11 12 0
10 -11 -12 0
-10 11 -12 0
-10 -11 12 0
10 13 14 0
10 -13 -14 0
-10 13 -14 0
-10 -13 14 0
15 16 -17 0
15 -16 17 0
-15 16 17 0
-15 -16 -17 0
18 19 20 0
18 -19 -20 0
-18 19 -20 0
-18 -19 20 0
1 21 -22 0
1 -21 22 0
-1 21 22 0
-1 -21 -22 0
23 24 25 0
23 -24 -25 0
-23 24 -25 0
-23 -24 25 0
26 27 28 0
26 -27 -28 0
-26 27 -28 0
-26 -27 28 0
29 30 -31 0
29 -30 31 0
-29 30 31 0
-29 -30 -31 0
32 33 -34 0
32 -33 34 0
-32 33 34 0
-32 -33 -34 0
35 36 37 0
35 -36 -37 0
-35 36 -37 0
-35 -36 37 0
38 39 -40 0
38 -39 40 0
-38 39 40 0
-38 -39 -40 0
41 42 -43 0
41 -42 43 0
-41 42 43 0
-41 -42 -43 0
44 45 -46 0
44 -45 46 0
-44 45 46 0
-44 -45 -46 0
47 48 -49 0
47 -48 49 0
-47 48 49 0
-47 -48 -49 0
50 51 -52 0
50 -51 52 0
-50 51 52 0
-50 -51 -52 0
53 54 -55 0
53 -54 55 0
-53 54 55 0
-53 -54 -55 0
11 56 57 0
11 -56 -57 0
-11 56 -57 0
-11 -56 57 0
58 59 60 0
58 -59 -60 0
-58 59 -60 0
-58 -59 60 0
32 61 62 0
32 -61 -62 0
-32 61 -62 0
-32 -61 62 0
63 64 65 0
63 -64 -65 0
-63 64 -65 0
-63 -64 65 0
66 67 68 0
66 -67 -68 0
-66 67 -68 0
-66 -67 68 0
69 70 -71 0
69 -70 71 0
-69 70 71 0
-69 -70 -71 0
72 73 74 0
72 -73 -74 0
-72 73 -74 0
-72 -73 74 0
75 76 77 0
75 -76 -77 0
-75 76 -77 0
-75 -76 77 0
2 78 79 0
2 -78 -79 0
-2 78 -79 0
-2 -78 79 0
80 81 82 0
80 -81 -82 0
-80 81 -82 0
-80 -81 82 0
23 83 -84 0
23 -83 84 0
-23 83 84 0
-23 -83 -84 0
85 86 87 0
85 -86 -87 0
-85 86 -87 0
-85 -86 87 0
88 89 90 0
88 -89 -90 0
-88 89 -90 0
-88 -89 90 0
91 92 -93 0
91 -92 93 0
-91 92 93 0
-91 -92 -93 0
94 95 96 0
94 -95 -96 0
-94 95 -96 0
-94 -95 96 0
97 98 -99 0
97 -98 99 0
-97 98 99 0
-97 -98 -99 0
100 101 -102 0
100 -101 102 0
-100 101 102 0
-100 -101 -102 0
103 104 105 0
103 -104 -105 0
-103 104 -105 0
-103 -104 105 0
97 106 -107 0
97 -106 107 0
-97 106 107 0
-97 -106 -107 0
108 109 -110 0
108 -109 110 0
-108 109 110 0
-108 -109 -110 0
111 112 113 0
111 -112 -113 0
-111 112 -113 0
-111 -112 113 0
114 115 116 0
114 -115 -116 0
-114 115 -116 0
-114 -115 116 0
75 117 118 0
75 -117 -118 0
-75 117 -118 0
-75 -117 118 0
119 120 -121 0
119 -120 121 0
-119 120 121 0
-119 -120 -121 0
53 122 123 0
53 -122 -123 0
-53 122 -123 0
-53 -122 123 0
124 125 -126 0
124 -125 126 0
-124 125 126 0
-124 -125 -126 0
127 128 -129 0
127 -128 129 0
-127 128 129 0
-127 -128 -129 0
130 131 132 0
130 -131 -132 0
-130 131 -132 0
-130 -131 132 0
78 133 -134 0
78 -133 134 0
-78 133 134 0
-78 -133 -134 0
114 135 136 0
114 -135 -136 0
-114 135 -136 0
-114 -135 136 0
137 138 -139 0
137 -138 139 0
-137 138 139 0
-137 -138 -139 0
140 141 -142 0
140 -141 142 0
-140 141 142 0
-140 -141 -142 0
50 143 -144 0
50 -143 144 0
-50 143 144 0
-50 -143 -144 0
145 146 -147 0
145 -146 147 0
-145 146 147 0
-145 -146 -147 0
148 149 -150 0
148 -149 150 0
-148 149 150 0
-148 -149 -150 0
143 151 152 0
143 -151 -152 0
-143 151 -152 0
-143 -151 152 0
153 154 -155 0
153 -154 155 0
-153 154 155 0
-153 -154 -155 0
51 156 157 0
51 -156 -157 0
-51 156 -157 0
-51 -156 157 0
158 159 -160 0
158 -159 160 0
-158 159 160 0
-158 -159 -160 0
69 161 -162 0
69 -161 162 0
-69 161 162 0
-69 -161 -162 0
163 164 -165 0
163 -164 165 0
-163 164 165 0
-163 -164 -165 0
166 167 -168 0
166 -167 168 0
-166 167 168 0
-166 -167 -168 0
169 170 171 0
169 -170 -171 0
-169 170 -171 0
-169 -170 171 0
169 172 173 0
169 -172 -173 0
-169 172 -173 0
-169 -172 173 0
174 175 -176 0
174 -175 176 0
-174 175 176 0
-174 -175 -176 0
177 178 179 0
177 -178 -179 0
-177 178 -179 0
-177 -178 179 0
180 181 -182 0
180 -181 182 0
-180 181 182 0
-180 -181 -182 0
183 184 -185 0
183 -184 185 0
-183 184 185 0
-183 -184 -185 0
186 187 -188 0
186 -187 188 0
-186 187 188 0
-186 -187 -188 0
189 190 -191 0
189 -190 191 0
-189 190 191 0
-189 -190 -191 0
192 193 -194 0
192 -193 194 0
-192 193 194 0
-192 -193 -194 0
195 196 197 0
195 -196 -197 0
-195 196 -197 0
-195 -196 197 0
54 198 -199 0
54 -198 199 0
-54 198 199 0
-54 -198 -199 0
151 200 201 0
151 -200 -201 0
-151 200 -201 0
-151 -200 201 0
202 203 204 0
202 -203 -204 0
-202 203 -204 0
-202 -203 204 0
205 206 -207 0
205 -206 207 0
-205 206 207 0
-205 -206 -207 0
208 209 210 0
208 -209 -210 0
-208 209 -210 0
-208 -209 210 0
211 212 213 0
211 -212 -213 0
-211 212 -213 0
-211 -212 213 0
180 214 215 0
180 -214 -215 0
-180 214 -215 0
-180 -214 215 0
216 217 -218 0
216 -217 218 0
-216 217 218 0
-216 -217 -218 0
219 220 -221 0
219 -220 221 0
-219 220 221 0
-219 -220 -221 0
177 222 223 0
177 -222 -223 0
-177 222 -223 0
-177 -222 223 0
224 225 -226 0
224 -225 226 0
-224 225 226 0
-224 -225 -226 0
227 228 -229 0
227 -228 229 0
-227 228 229 0
-227 -228 -229 0
230 231 232 0
230 -231 -232 0
-230 231 -232 0
-230 -231 232 0
41 52 189 0
41 -52 -189 0
-41 52 -189 0
-41 -52 189 0
233 234 -235 0
233 -234 235 0
-233 234 235 0
-233 -234 -235 0
236 237 238 0
236 -237 -238 0
-236 237 -238 0
-236 -237 238 0
239 240 -241 0
239 -240 241 0
-239 240 241 0
-239 -240 -241 0
242 243 -244 0
242 -243 244 0
-242 243 244 0
-242 -243 -244 0
245 246 -247 0
245 -246 247 0
-245 246 247 0
-245 -246 -247 0
248 249 250 0
248 -249 -250 0
-248 249 -250 0
-248 -249 250 0
192 251 -252 0
192 -251 252 0
-192 251 252 0
-192 -251 -252 0
253 254 255 0
253 -254 -255 0
-253 254 -255 0
-253 -254 255 0
256 257 258 0
256 -257 -258 0
-256 257 -258 0
-256 -257 258 0
259 260 261 0
259 -260 -261 0
-259 260 -261 0
-259 -260 261 0
262 263 264 0
262 -263 -264 0
-262 263 -264 0
-262 -263 264 0
265 266 267 0
265 -266 -267 0
-265 266 -267 0
-265 -266 267 0
106 268 269 0
106 -268 -269 0
-106 268 -269 0
-106 -268 269 0
270 271 272 0
270 -271 -272 0
-270 271 -272 0
-270 -271 272 0
273 274 -275 0
273 -274 275 0
-273 274 275 0
-273 -274 -275 0
163 276 277 0
163 -276 -277 0
-163 276 -277 0
-163 -276 277 0
35 278 279 0
35 -278 -279 0
-35 278 -279 0
-35 -278 279 0
280 281 -282 0
280 -281 282 0
-280 281 282 0
-280 -281 -282 0
283 284 285 0
283 -284 -285 0
-283 284 -285 0
-283 -284 285 0
286 287 288 0
286 -287 -288 0
-286 287 -288 0
-286 -287 288 0
276 289 290 0
276 -289 -290 0
-276 289 -290 0
-276 -289 290 0
286 291 292 0
286 -291 -292 0
-286 291 -292 0
-286 -291 292 0
293 294 295 0
293 -294 -295 0
-293 294 -295 0
-293 -294 295 0
127 296 -297 0
127 -296 297 0
-127 296 297 0
-127 -296 -297 0
33 298 299 0
33 -298 -299 0
-33 298 -299 0
-33 -298 299 0
300 301 -302 0
300 -301 302 0
-300 301 302 0
-300 -301 -302 0
18 303 -304 0
18 -303 304 0
-18 303 304 0
-18 -303 -304 0
305 306 307 0
305 -306 -307 0
-305 306 -307 0
-305 -306 307 0
190 259 308 0
190 -259 -308 0
-190 259 -308 0
-190 -259 308 0
309 310 -311 0
309 -310 311 0
-309 310 311 0
-309 -310 -311 0
107 312 313 0
107 -312 -313 0
-107 312 -313 0
-107 -312 313 0
314 315 316 0
314 -315 -316 0
-314 315 -316 0
-314 -315 316 0
317 318 -319 0
317 -318 319 0
-317 318 319 0
-317 -318 -319 0
320 321 322 0
320 -321 -322 0
-320 321 -322 0
-320 -321 322 0
29 323 324 0
29 -323 -324 0
-29 323 -324 0
-29 -323 324 0
325 326 -327 0
325 -326 327 0
-325 326 327 0
-325 -326 -327 0
328 329 -330 0
328 -329 330 0
-328 329 330 0
-328 -329 -330 0
331 332 333 0
331 -332 -333 0
-331 332 -333 0
-331 -332 333 0
334 335 336 0
334 -335 -336 0
-334 335 -336 0
-334 -335 336 0
337 338 339 0
337 -338 -339 0
-337 338 -339 0
-337 -338 339 0
15 340 341 0
15 -340 -341 0
-15 340 -341 0
-15 -340 341 0
130 342 343 0
130 -342 -343 0
-130 342 -343 0
-130 -342 343 0
344 345 -346 0
344 -345 346 0
-344 345 346 0
-344 -345 -346 0
251 347 348 0
251 -347 -348 0
-251 347 -348 0
-251 -347 348 0
44 349 -350 0
44 -349 350 0
-44 349 350 0
-44 -349 -350 0
351 352 353 0
351 -352 -353 0
-351 352 -353 0
-351 -352 353 0
72 354 -355 0
72 -354 355 0
-72 354 355 0
-72 -354 -355 0
325 328 -356 0
325 -328 356 0
-325 328 356 0
-325 -328 -356 0
357 358 -359 0
357 -358 359 0
-357 358 359 0
-357 -358 -359 0
26 360 361 0
26 -360 -361 0
-26 360 -361 0
-26 -360 361 0
200 362 -363 0
200 -362 363 0
-200 362 363 0
-200 -362 -363 0
364 365 366 0
364 -365 -366 0
-364 365 -366 0
-364 -365 366 0
124 367 -368 0
124 -367 368 0
-124 367 368 0
-124 -367 -368 0
211 369 -370 0
211 -369 370 0
-211 369 370 0
-211 -369 -370 0
371 372 -373 0
371 -372 373 0
-371 372 373 0
-371 -372 -373 0
374 375 -376 0
374 -375 376 0
-374 375 376 0
-374 -375 -376 0
377 378 -379 0
377 -378 379 0
-377 378 379 0
-377 -378 -379 0
380 381 382 0
380 -381 -382 0
-380 381 -382 0
-380 -381 382 0
252 383 -384 0
252 -383 384 0
-252 383 384 0
-252 -383 -384 0
385 386 -387 0
385 -386 387 0
-385 386 387 0
-385 -386 -387 0
388 389 -390 0
388 -389 390 0
-388 389 390 0
-388 -389 -390 0
24 391 -392 0
24 -391 392 0
-24 391 392 0
-24 -391 -392 0
16 393 -394 0
16 -393 394 0
-16 393 394 0
-16 -393 -394 0
4 395 -396 0
4 -395 396 0
-4 395 396 0
-4 -395 -396 0
103 397 398 0
103 -397 -398 0
-103 397 -398 0
-103 -397 398 0
331 399 -400 0
331 -399 400 0
-331 399 400 0
-331 -399 -400 0
91 401 -402 0
91 -401 402 0
-91 401 402 0
-91 -401 -402 0
131 403 -404 0
131 -403 404 0
-131 403 404 0
-131 -403 -404 0
405 406 407 0
405 -406 -407 0
-405 406 -407 0
-405 -406 407 0
104 242 408 0
104 -242 -408 0
-104 242 -408 0
-104 -242 408 0
227 409 410 0
227 -409 -410 0
-227 409 -410 0
-227 -409 410 0
314 411 -412 0
314 -411 412 0
-314 411 412 0
-314 -411 -412 0
135 332 413 0
135 -332 -413 0
-135 332 -413 0
-135 -332 413 0
140 293 -414 0
140 -293 414 0
-140 293 414 0
-140 -293 -414 0
401 415 416 0
401 -415 -416 0
-401 415 -416 0
-401 -415 416 0
280 417 -418 0
280 -417 418 0
-280 417 418 0
-280 -417 -418 0
419 420 -421 0
419 -420 421 0
-419 420 421 0
-419 -420 -421 0
38 422 423 0
38 -422 -423 0
-38 422 -423 0
-38 -422 423 0
424 425 426 0
424 -425 -426 0
-424 425 -426 0
-424 -425 426 0
427 428 -429 0
427 -428 429 0
-427 428 429 0
-427 -428 -429 0
36 430 431 0
36 -430 -431 0
-36 430 -431 0
-36 -430 431 0
432 433 -434 0
432 -433 434 0
-432 433 434 0
-432 -433 -434 0
435 436 437 0
435 -436 -437 0
-435 436 -437 0
-435 -436 437 0
438 439 440 0
438 -439 -440 0
-438 439 -440 0
-438 -439 440 0
441 442 443 0
441 -442 -443 0
-441 442 -443 0
-441 -442 443 0
80 444 445 0
80 -444 -445 0
-80 444 -445 0
-80 -444 445 0
17 385 446 0
17 -385 -446 0
-17 385 -446 0
-17 -385 446 0
13 447 448 0
13 -447 -448 0
-13 447 -448 0
-13 -447 448 0
447 449 450 0
447 -449 -450 0
-447 449 -450 0
-447 -449 450 0
296 451 -452 0
296 -451 452 0
-296 451 452 0
-296 -451 -452 0
337 453 -454 0
337 -453 454 0
-337 453 454 0
-337 -453 -454 0
455 456 457 0
455 -456 -457 0
-455 456 -457 0
-455 -456 457 0
228 303 -458 0
228 -303 458 0
-228 303 458 0
-228 -303 -458 0
81 198 -388 0
81 -198 388 0
-81 198 388 0
-81 -198 -388 0
166 459 -460 0
166 -459 460 0
-166 459 460 0
-166 -459 -460 0
419 453 -461 0
419 -453 461 0
-419 453 461 0
-419 -453 -461 0
66 383 -417 0
66 -383 417 0
-66 383 417 0
-66 -383 -417 0
88 462 463 0
88 -462 -463 0
-88 462 -463 0
-88 -462 463 0
464 465 466 0
464 -465 -466 0
-464 465 -466 0
-464 -465 466 0
467 468 -469 0
467 -468 469 0
-467 468 469 0
-467 -468 -469 0
470 471 -472 0
470 -471 472 0
-470 471 472 0
-470 -471 -472 0
202 344 386 0
202 -344 -386 0
-202 344 -386 0
-202 -344 386 0
158 393 -473 0
158 -393 473 0
-158 393 473 0
-158 -393 -473 0
305 474 475 0
305 -474 -475 0
-305 474 -475 0
-305 -474 475 0
476 477 -478 0
476 -477 478 0
-476 477 478 0
-476 -477 -478 0
47 479 -480 0
47 -479 480 0
-47 479 480 0
-47 -479 -480 0
441 455 481 0
441 -455 -481 0
-441 455 -481 0
-441 -455 481 0
474 482 -483 0
474 -482 483 0
-474 482 483 0
-474 -482 -483 0
167 484 485 0
167 -484 -485 0
-167 484 -485 0
-167 -484 485 0
486 487 -488 0
486 -487 488 0
-486 487 488 0
-486 -487 -488 0
371 489 -490 0
371 -489 490 0
-371 489 490 0
-371 -489 -490 0
222 351 491 0
222 -351 -491 0
-222 351 -491 0
-222 -351 491 0
334 492 493 0
334 -492 -493 0
-334 492 -493 0
-334 -492 493 0
148 494 -495 0
148 -494 495 0
-148 494 495 0
-148 -494 -495 0
496 497 -498 0
496 -497 498 0
-496 497 498 0
-496 -497 -498 0
499 500 -501 0
499 -500 501 0
-499 500 501 0
-499 -500 -501 0
502 503 504 0
502 -503 -504 0
-502 503 -504 0
-502 -503 504 0
248 505 506 0
248 -505 -506 0
-248 505 -506 0
-248 -505 506 0
507 508 -509 0
507 -508 509 0
-507 508 509 0
-507 -508 -509 0
186 510 -511 0
186 -510 511 0
-186 510 511 0
-186 -510 -511 0
512 513 514 0
512 -513 -514 0
-512 513 -514 0
-512 -513 514 0
92 515 516 0
92 -515 -516 0
-92 515 -516 0
-92 -515 516 0
94 517 -518 0
94 -517 518 0
-94 517 518 0
-94 -517 -518 0
115 335 519 0
115 -335 -519 0
-115 335 -519 0
-115 -335 519 0
349 520 521 0
349 -520 -521 0
-349 520 -521 0
-349 -520 521 0
522 523 -524 0
522 -523 524 0
-522 523 524 0
-522 -523 -524 0
470 525 -526 0
470 -525 526 0
-470 525 526 0
-470 -525 -526 0
527 528 529 0
527 -528 -529 0
-527 528 -529 0
-527 -528 529 0
153 458 510 0
153 -458 -510 0
-153 458 -510 0
-153 -458 510 0
249 476 530 0
249 -476 -530 0
-249 476 -530 0
-249 -476 530 0
300 531 532 0
300 -531 -532 0
-300 531 -532 0
-300 -531 532 0
449 533 534 0
449 -533 -534 0
-449 533 -534 0
-449 -533 534 0
203 265 -535 0
203 -265 535 0
-203 265 535 0
-203 -265 -535 0
219 536 -537 0
219 -536 537 0
-219 536 537 0
-219 -536 -537 0
128 538 -539 0
128 -538 539 0
-128 538 539 0
-128 -538 -539 0
5 540 541 0
5 -540 -541 0
-5 540 -541 0
-5 -540 541 0
42 214 -542 0
42 -214 542 0
-42 214 542 0
-42 -214 -542 0
58 543 -544 0
58 -543 544 0
-58 543 544 0
-58 -543 -544 0
464 545 546 0
464 -545 -546 0
-464 545 -546 0
-464 -545 546 0
56 547 548 0
56 -547 -548 0
-56 547 -548 0
-56 -547 548 0
161 499 -549 0
161 -499 549 0
-161 499 549 0
-161 -499 -549 0
465 496 -550 0
465 -496 550 0
-465 496 550 0
-465 -496 -550 0
551 552 553 0
551 -552 -553 0
-551 552 -553 0
-551 -552 553 0
145 554 555 0
145 -554 -555 0
-145 554 -555 0
-145 -554 555 0
116 556 557 0
116 -556 -557 0
-116 556 -557 0
-116 -556 557 0
558 559 -560 0
558 -559 560 0
-558 559 560 0
-558 -559 -560 0
55 561 -562 0
55 -561 562 0
-55 561 562 0
-55 -561 -562 0
159 563 -564 0
159 -563 564 0
-159 563 564 0
-159 -563 -564 0
100 394 565 0
100 -394 -565 0
-100 394 -565 0
-100 -394 565 0
444 566 -567 0
444 -566 567 0
-444 566 567 0
-444 -566 -567 0
519 568 -569 0
519 -568 569 0
-519 568 569 0
-519 -568 -569 0
7 146 570 0
7 -146 -570 0
-7 146 -570 0
-7 -146 570 0
571 572 -573 0
571 -572 573 0
-571 572 573 0
-571 -572 -573 0
384 522 -574 0
384 -522 574 0
-384 522 574 0
-384 -522 -574 0
575 576 -577 0
575 -576 577 0
-575 576 577 0
-575 -576 -577 0
571 578 579 0
571 -578 -579 0
-571 578 -579 0
-571 -578 579 0
482 580 581 0
482 -580 -581 0
-482 580 -581 0
-482 -580 581 0
582 583 584 0
582 -583 -584 0
-582 583 -584 0
-582 -583 584 0
30 572 585 0
30 -572 -585 0
-30 572 -585 0
-30 -572 585 0
586 587 -588 0
586 -587 588 0
-586 587 588 0
-586 -587 -588 0
215 589 590 0
215 -589 -590 0
-215 589 -590 0
-215 -589 590 0
403 591 592 0
403 -591 -592 0
-403 591 -592 0
-403 -591 592 0
593 594 -595 0
593 -594 595 0
-593 594 595 0
-593 -594 -595 0
195 309 596 0
195 -309 -596 0
-195 309 -596 0
-195 -309 596 0
593 597 -598 0
593 -597 598 0
-593 597 598 0
-593 -597 -598 0
459 599 -600 0
459 -599 600 0
-459 599 600 0
-459 -599 -600 0
250 566 601 0
250 -566 -601 0
-250 566 -601 0
-250 -566 601 0
415 602 -603 0
415 -602 603 0
-415 602 603 0
-415 -602 -603 0
430 604 605 0
430 -604 -605 0
-430 604 -605 0
-430 -604 605 0
357 389 606 0
357 -389 -606 0
-357 389 -606 0
-357 -389 606 0
170 607 -608 0
170 -607 608 0
-170 607 608 0
-170 -607 -608 0
19 48 -329 0
19 -48 329 0
-19 48 329 0
-19 -48 -329 0
141 609 -610 0
141 -609 610 0
-141 609 610 0
-141 -609 -610 0
611 612 613 0
611 -612 -613 0
-611 612 -613 0
-611 -612 613 0
224 614 615 0
224 -614 -615 0
-224 614 -615 0
-224 -614 615 0
530 616 617 0
530 -616 -617 0
-530 616 -617 0
-530 -616 617 0
125 618 -619 0
125 -618 619 0
-125 618 619 0
-125 -618 -619 0
57 620 621 0
57 -620 -621 0
-57 620 -621 0
-57 -620 621 0
174 604 -622 0
174 -604 622 0
-174 604 622 0
-174 -604 -622 0
291 574 -623 0
291 -574 623 0
-291 574 623 0
-291 -574 -623 0
467 624 -625 0
467 -624 625 0
-467 624 625 0
-467 -624 -625 0
414 626 627 0
414 -626 -627 0
-414 626 -627 0
-414 -626 627 0
39 70 391 0
39 -70 -391 0
-39 70 -391 0
-39 -70 391 0
628 629 -630 0
628 -629 630 0
-628 629 630 0
-628 -629 -630 0
628 631 632 0
628 -631 -632 0
-628 631 -632 0
-628 -631 632 0
27 606 633 0
27 -606 -633 0
-27 606 -633 0
-27 -606 633 0
144 473 634 0
144 -473 -634 0
-144 473 -634 0
-144 -473 634 0
154 523 -635 0
154 -523 635 0
-154 523 635 0
-154 -523 -635 0
563 636 -637 0
563 -636 637 0
-563 636 637 0
-563 -636 -637 0
638 639 -640 0
638 -639 640 0
-638 639 640 0
-638 -639 -640 0
183 641 642 0
183 -641 -642 0
-183 641 -642 0
-183 -641 642 0
220 643 644 0
220 -643 -644 0
-220 643 -644 0
-220 -643 644 0
380 578 645 0
380 -578 -645 0
-380 578 -645 0
-380 -578 645 0
374 646 -647 0
374 -646 647 0
-374 646 647 0
-374 -646 -647 0
245 547 -638 0
245 -547 638 0
-245 547 638 0
-245 -547 -638 0
256 542 -648 0
256 -542 648 0
-256 542 648 0
-256 -542 -648 0
196 216 649 0
196 -216 -649 0
-196 216 -649 0
-196 -216 649 0
164 287 -650 0
164 -287 650 0
-164 287 650 0
-164 -287 -650 0
340 651 652 0
340 -651 -652 0
-340 651 -652 0
-340 -651 652 0
212 266 -575 0
212 -266 575 0
-212 266 575 0
-212 -266 -575 0
653 654 655 0
653 -654 -655 0
-653 654 -655 0
-653 -654 655 0
101 213 -507 0
101 -213 507 0
-101 213 507 0
-101 -213 -507 0
156 442 -656 0
156 -442 656 0
-156 442 656 0
-156 -442 -656 0
427 657 -658 0
427 -657 658 0
-427 657 658 0
-427 -657 -658 0
191 631 -659 0
191 -631 659 0
-191 631 659 0
-191 -631 -659 0
63 201 660 0
63 -201 -660 0
-63 201 -660 0
-63 -201 660 0
633 661 -662 0
633 -661 662 0
-633 661 662 0
-633 -661 -662 0
497 663 -664 0
497 -663 664 0
-497 663 664 0
-497 -663 -664 0
381 665 -666 0
381 -665 666 0
-381 665 666 0
-381 -665 -666 0
85 477 667 0
85 -477 -667 0
-85 477 -667 0
-85 -477 667 0
289 492 668 0
289 -492 -668 0
-289 492 -668 0
-289 -492 668 0
669 670 -671 0
669 -670 671 0
-669 670 671 0
-669 -670 -671 0
172 545 672 0
172 -545 -672 0
-172 545 -672 0
-172 -545 672 0
233 567 -665 0
233 -567 665 0
-233 567 665 0
-233 -567 -665 0
6 646 673 0
6 -646 -673 0
-6 646 -673 0
-6 -646 673 0
149 538 -674 0
149 -538 674 0
-149 538 674 0
-149 -538 -674 0
405 462 -675 0
405 -462 675 0
-405 462 675 0
-405 -462 -675 0
486 616 676 0
486 -616 -676 0
-486 616 -676 0
-486 -616 676 0
8 677 678 0
8 -677 -678 0
-8 677 -678 0
-8 -677 678 0
102 679 -680 0
102 -679 680 0
-102 679 680 0
-102 -679 -680 0
277 681 682 0
277 -681 -682 0
-277 681 -682 0
-277 -681 682 0
132 589 -641 0
132 -589 641 0
-132 589 641 0
-132 -589 -641 0
683 684 685 0
683 -684 -685 0
-683 684 -685 0
-683 -684 685 0
345 686 -687 0
345 -686 687 0
-345 686 687 0
-345 -686 -687 0
225 620 688 0
225 -620 -688 0
-225 620 -688 0
-225 -620 688 0
536 558 689 0
536 -558 -689 0
-536 558 -689 0
-536 -558 689 0
230 301 -448 0
230 -301 448 0
-230 301 448 0
-230 -301 -448 0
283 690 -691 0
283 -690 691 0
-283 690 691 0
-283 -690 -691 0
98 239 692 0
98 -239 -692 0
-98 239 -692 0
-98 -239 692 0
693 694 695 0
693 -694 -695 0
-693 694 -695 0
-693 -694 695 0
204 395 -404 0
204 -395 404 0
-204 395 404 0
-204 -395 -404 0
689 696 -697 0
689 -696 697 0
-689 696 697 0
-689 -696 -697 0
650 698 -699 0
650 -698 699 0
-650 698 699 0
-650 -698 -699 0
197 240 700 0
197 -240 -700 0
-197 240 -700 0
-197 -240 700 0
315 701 -702 0
315 -701 702 0
-315 701 702 0
-315 -701 -702 0
119 205 629 0
119 -205 -629 0
-119 205 -629 0
-119 -205 629 0
397 551 703 0
397 -551 -703 0
-397 551 -703 0
-397 -551 703 0
111 704 -705 0
111 -704 705 0
-111 704 705 0
-111 -704 -705 0
34 579 651 0
34 -579 -651 0
-34 579 -651 0
-34 -579 651 0
632 706 707 0
632 -706 -707 0
-632 706 -707 0
-632 -706 707 0
294 500 -708 0
294 -500 708 0
-294 500 708 0
-294 -500 -708 0
609 709 710 0
609 -709 -710 0
-609 709 -710 0
-609 -709 710 0
711 712 713 0
711 -712 -713 0
-711 712 -713 0
-711 -712 713 0
352 515 714 0
352 -515 -714 0
-352 515 -714 0
-352 -515 714 0
3 292 -501 0
3 -292 501 0
-3 292 501 0
-3 -292 -501 0
715 716 717 0
715 -716 -717 0
-715 716 -717 0
-715 -716 717 0
45 316 -718 0
45 -316 718 0
-45 316 718 0
-45 -316 -718 0
377 602 -719 0
377 -602 719 0
-377 602 719 0
-377 -602 -719 0
559 703 720 0
559 -703 -720 0
-559 703 -720 0
-559 -703 720 0
112 721 -722 0
112 -721 722 0
-112 721 722 0
-112 -721 -722 0
711 723 -724 0
711 -723 724 0
-711 723 724 0
-711 -723 -724 0
175 487 -725 0
175 -487 725 0
-175 487 725 0
-175 -487 -725 0
338 399 -715 0
338 -399 715 0
-338 399 715 0
-338 -399 -715 0
576 586 -669 0
576 -586 669 0
-576 586 669 0
-576 -586 -669 0
243 667 -726 0
243 -667 726 0
-243 667 726 0
-243 -667 -726 0
582 727 -728 0
582 -727 728 0
-582 727 728 0
-582 -727 -728 0
120 451 488 0
120 -451 -488 0
-120 451 -488 0
-120 -451 488 0
126 491 -729 0
126 -491 729 0
-126 491 729 0
-126 -491 -729 0
540 583 -626 0
540 -583 626 0
-540 583 626 0
-540 -583 -626 0
330 730 -731 0
330 -730 731 0
-330 730 731 0
-330 -730 -731 0
226 372 -677 0
226 -372 677 0
-226 372 677 0
-226 -372 -677 0
61 95 686 0
61 -95 -686 0
-61 95 -686 0
-61 -95 686 0
652 732 -733 0
652 -732 733 0
-652 732 733 0
-652 -732 -733 0
297 673 698 0
297 -673 -698 0
-297 673 -698 0
-297 -673 698 0
424 734 735 0
424 -734 -735 0
-424 734 -735 0
-424 -734 735 0
411 489 -736 0
411 -489 736 0
-411 489 736 0
-411 -489 -736 0
236 704 737 0
236 -704 -737 0
-236 704 -737 0
-236 -704 737 0
9 422 -738 0
9 -422 738 0
-9 422 738 0
-9 -422 -738 0
165 720 -739 0
165 -720 739 0
-165 720 739 0
-165 -720 -739 0
456 740 741 0
456 -740 -741 0
-456 740 -741 0
-456 -740 741 0
234 543 -742 0
234 -543 742 0
-234 543 742 0
-234 -543 -742 0
281 743 -744 0
281 -743 744 0
-281 743 744 0
-281 -743 -744 0
73 187 402 0
73 -187 -402 0
-73 187 -402 0
-73 -187 402 0
364 745 -746 0
364 -745 746 0
-364 745 746 0
-364 -745 -746 0
747 748 749 0
747 -748 -749 0
-747 748 -749 0
-747 -748 749 0
653 750 751 0
653 -750 -751 0
-653 750 -751 0
-653 -750 751 0
310 752 753 0
310 -752 -753 0
-310 752 -753 0
-310 -752 753 0
452 754 -755 0
452 -754 755 0
-452 754 755 0
-452 -754 -755 0
89 133 428 0
89 -133 -428 0
-89 133 -428 0
-89 -133 428 0
83 668 716 0
83 -668 -716 0
-83 668 -716 0
-83 -668 716 0
591 675 -712 0
591 -675 712 0
-591 675 712 0
-591 -675 -712 0
173 596 639 0
173 -596 -639 0
-173 596 -639 0
-173 -596 639 0
181 531 -756 0
181 -531 756 0
-181 531 756 0
-181 -531 -756 0
184 336 719 0
184 -336 -719 0
-184 336 -719 0
-184 -336 719 0
416 554 -757 0
416 -554 757 0
-416 554 757 0
-416 -554 -757 0
502 758 -759 0
502 -758 759 0
-502 758 759 0
-502 -758 -759 0
178 760 761 0
178 -760 -761 0
-178 760 -761 0
-178 -760 761 0
323 431 -762 0
323 -431 762 0
-323 431 762 0
-323 -431 -762 0
721 763 764 0
721 -763 -764 0
-721 763 -764 0
-721 -763 764 0
31 298 369 0
31 -298 -369 0
-31 298 -369 0
-31 -298 369 0
136 765 -766 0
136 -765 766 0
-136 765 766 0
-136 -765 -766 0
661 767 -768 0
661 -767 768 0
-661 767 768 0
-661 -767 -768 0
358 481 769 0
358 -481 -769 0
-358 481 -769 0
-358 -481 769 0
739 743 -770 0
739 -743 770 0
-739 743 770 0
-739 -743 -770 0
257 367 -659 0
257 -367 659 0
-257 367 659 0
-257 -367 -659 0
320 636 771 0
320 -636 -771 0
-320 636 -771 0
-320 -636 771 0
229 611 772 0
229 -611 -772 0
-229 611 -772 0
-229 -611 772 0
678 709 -773 0
678 -709 773 0
-678 709 773 0
-678 -709 -773 0
150 532 774 0
150 -532 -774 0
-150 532 -774 0
-150 -532 774 0
339 561 -775 0
339 -561 775 0
-339 561 775 0
-339 -561 -775 0
208 512 -776 0
208 -512 776 0
-208 512 776 0
-208 -512 -776 0
117 777 -778 0
117 -777 778 0
-117 777 778 0
-117 -777 -778 0
76 779 -780 0
76 -779 780 0
-76 779 780 0
-76 -779 -780 0
648 666 781 0
648 -666 -781 0
-648 666 -781 0
-648 -666 781 0
299 640 700 0
299 -640 -700 0
-299 640 -700 0
-299 -640 700 0
782 783 784 0
782 -783 -784 0
-782 783 -784 0
-782 -783 784 0
134 306 647 0
134 -306 -647 0
-134 306 -647 0
-134 -306 647 0
221 622 785 0
221 -622 -785 0
-221 622 -785 0
-221 -622 785 0
21 162 -683 0
21 -162 683 0
-21 162 683 0
-21 -162 -683 0
267 594 -730 0
267 -594 730 0
-267 594 730 0
-267 -594 -730 0
782 786 787 0
782 -786 -787 0
-782 786 -787 0
-782 -786 787 0
317 788 -789 0
317 -788 789 0
-317 788 789 0
-317 -788 -789 0
108 570 -760 0
108 -570 760 0
-108 570 760 0
-108 -570 -760 0
270 708 -790 0
270 -708 790 0
-270 708 790 0
-270 -708 -790 0
284 347 736 0
284 -347 -736 0
-284 347 -736 0
-284 -347 736 0
318 468 791 0
318 -468 -791 0
-318 468 -791 0
-318 -468 791 0
188 271 -663 0
188 -271 663 0
-188 271 663 0
-188 -271 -663 0
423 770 792 0
423 -770 -792 0
-423 770 -792 0
-423 -770 792 0
74 413 -793 0
74 -413 793 0
-74 413 793 0
-74 -413 -793 0
398 471 -637 0
398 -471 637 0
-398 471 637 0
-398 -471 -637 0
223 435 794 0
223 -435 -794 0
-223 435 -794 0
-223 -435 794 0
206 795 796 0
206 -795 -796 0
-206 795 -796 0
-206 -795 796 0
46 617 -765 0
46 -617 765 0
-46 617 765 0
-46 -617 -765 0
79 797 798 0
79 -797 -798 0
-79 797 -798 0
-79 -797 798 0
354 799 800 0
354 -799 -800 0
-354 799 -800 0
-354 -799 800 0
262 472 605 0
262 -472 -605 0
-262 472 -605 0
-262 -472 605 0
171 375 -773 0
171 -375 773 0
-171 375 773 0
-171 -375 -773 0
176 696 801 0
176 -696 -801 0
-176 696 -801 0
-176 -696 801 0
738 795 802 0
738 -795 -802 0
-738 795 -802 0
-738 -795 802 0
155 786 -803 0
155 -786 803 0
-155 786 803 0
-155 -786 -803 0
288 804 805 0
288 -804 -805 0
-288 804 -805 0
-288 -804 805 0
607 806 807 0
607 -806 -807 0
-607 806 -807 0
-607 -806 807 0
645 808 809 0
645 -808 -809 0
-645 808 -809 0
-645 -808 809 0
603 618 732 0
603 -618 -732 0
-603 618 -732 0
-603 -618 732 0
483 484 657 0
483 -484 -657 0
-483 484 -657 0
-483 -484 657 0
137 355 365 0
137 -355 -365 0
-137 355 -365 0
-137 -355 365 0
701 810 -811 0
701 -810 811 0
-701 810 811 0
-701 -810 -811 0
546 717 802 0
546 -717 -802 0
-546 717 -802 0
-546 -717 802 0
359 812 -813 0
359 -812 813 0
-359 812 813 0
-359 -812 -813 0
722 814 815 0
722 -814 -815 0
-722 814 -815 0
-722 -814 815 0
353 816 817 0
353 -816 -817 0
-353 816 -817 0
-353 -816 817 0
235 814 -818 0
235 -814 818 0
-235 814 818 0
-235 -814 -818 0
20 580 -819 0
20 -580 819 0
-20 580 819 0
-20 -580 -819 0
612 664 820 0
612 -664 -820 0
-612 664 -820 0
-612 -664 820 0
272 273 -619 0
272 -273 619 0
-272 273 619 0
-272 -273 -619 0
326 516 -821 0
326 -516 821 0
-326 516 821 0
-326 -516 -821 0
342 822 823 0
342 -822 -823 0
-342 822 -823 0
-342 -822 823 0
475 511 -564 0
475 -511 564 0
-475 511 564 0
-475 -511 -564 0
654 745 777 0
654 -745 -777 0
-654 745 -777 0
-654 -745 777 0
282 463 824 0
282 -463 -824 0
-282 463 -824 0
-282 -463 824 0
577 799 -825 0
577 -799 825 0
-577 799 825 0
-577 -799 -825 0
28 505 -826 0
28 -505 826 0
-28 505 826 0
-28 -505 -826 0
96 324 517 0
96 -324 -517 0
-96 324 -517 0
-96 -324 517 0
548 812 -827 0
548 -812 827 0
-548 812 827 0
-548 -812 -827 0
71 321 -396 0
71 -321 396 0
-71 321 396 0
-71 -321 -396 0
390 635 794 0
390 -635 -794 0
-390 635 -794 0
-390 -635 794 0
714 740 -828 0
714 -740 828 0
-714 740 828 0
-714 -740 -828 0
409 750 829 0
409 -750 -829 0
-409 750 -829 0
-409 -750 829 0
86 302 311 0
86 -302 -311 0
-86 302 -311 0
-86 -302 311 0
376 747 769 0
376 -747 -769 0
-376 747 -769 0
-376 -747 769 0
438 556 -830 0
438 -556 830 0
-438 556 830 0
-438 -556 -830 0
490 643 806 0
490 -643 -806 0
-490 643 -806 0
-490 -643 806 0
608 688 723 0
608 -688 -723 0
-608 688 -723 0
-608 -688 723 0
160 831 832 0
160 -831 -832 0
-160 831 -832 0
-160 -831 832 0
544 684 -790 0
544 -684 790 0
-544 684 790 0
-544 -684 -790 0
22 312 833 0
22 -312 -833 0
-22 312 -833 0
-22 -312 833 0
705 834 -835 0
705 -834 835 0
-705 834 835 0
-705 -834 -835 0
157 818 -836 0
157 -818 836 0
-157 818 836 0
-157 -818 -836 0
368 439 837 0
368 -439 -837 0
-368 439 -837 0
-368 -439 837 0
121 627 838 0
121 -627 -838 0
-121 627 -838 0
-121 -627 838 0
378 555 808 0
378 -555 -808 0
-378 555 -808 0
-378 -555 808 0
568 839 -840 0
568 -839 840 0
-568 839 840 0
-568 -839 -840 0
779 841 -842 0
779 -841 842 0
-779 841 842 0
-779 -841 -842 0
295 400 733 0
295 -400 -733 0
-295 400 -733 0
-295 -400 733 0
478 827 -843 0
478 -827 843 0
-478 827 843 0
-478 -827 -843 0
725 810 -816 0
725 -810 816 0
-725 810 816 0
-725 -810 -816 0
67 520 839 0
67 -520 -839 0
-67 520 -839 0
-67 -520 839 0
658 844 845 0
658 -844 -845 0
-658 844 -845 0
-658 -844 845 0
670 734 -846 0
670 -734 846 0
-670 734 846 0
-670 -734 -846 0
237 533 -718 0
237 -533 718 0
-237 533 718 0
-237 -533 -718 0
268 775 847 0
268 -775 -847 0
-268 775 -847 0
-268 -775 847 0
493 539 -848 0
493 -539 848 0
-493 539 848 0
-493 -539 -848 0
379 754 -849 0
379 -754 849 0
-379 754 849 0
-379 -754 -849 0
406 850 851 0
406 -850 -851 0
-406 850 -851 0
-406 -850 851 0
260 425 429 0
260 -425 -429 0
-260 425 -429 0
-260 -425 429 0
479 852 853 0
479 -852 -853 0
-479 852 -853 0
-479 -852 853 0
138 457 854 0
138 -457 -854 0
-138 457 -854 0
-138 -457 854 0
485 855 -856 0
485 -855 856 0
-485 855 856 0
-485 -855 -856 0
77 824 -857 0
77 -824 857 0
-77 824 857 0
-77 -824 -857 0
182 804 -850 0
182 -804 850 0
-182 804 850 0
-182 -804 -850 0
64 690 858 0
64 -690 -858 0
-64 690 -858 0
-64 -690 858 0
313 595 840 0
313 -595 -840 0
-313 595 -840 0
-313 -595 840 0
168 710 -859 0
168 -710 859 0
-168 710 859 0
-168 -710 -859 0
99 105 -857 0
99 -105 857 0
-99 105 857 0
-99 -105 -857 0
253 592 -752 0
253 -592 752 0
-253 592 752 0
-253 -592 -752 0
285 860 -861 0
285 -860 861 0
-285 860 861 0
-285 -860 -861 0
122 290 862 0
122 -290 -862 0
-122 290 -862 0
-122 -290 862 0
65 139 -445 0
65 -139 445 0
-65 139 445 0
-65 -139 -445 0
142 560 801 0
142 -560 -801 0
-142 560 -801 0
-142 -560 801 0
43 791 -863 0
43 -791 863 0
-43 791 863 0
-43 -791 -863 0
426 783 864 0
426 -783 -864 0
-426 783 -864 0
-426 -783 864 0
207 308 432 0
207 -308 -432 0
-207 308 -432 0
-207 -308 432 0
246 557 -706 0
246 -557 706 0
-246 557 706 0
-246 -557 -706 0
82 350 -562 0
82 -350 562 0
-82 350 562 0
-82 -350 -562 0
614 649 865 0
614 -649 -865 0
-614 649 -865 0
-614 -649 865 0
866 867 -868 0
866 -867 868 0
-866 867 868 0
-866 -867 -868 0
788 869 -870 0
788 -869 870 0
-788 869 870 0
-788 -869 -870 0
84 518 807 0
84 -518 -807 0
-84 518 -807 0
-84 -518 807 0
370 692 -871 0
370 -692 871 0
-370 692 871 0
-370 -692 -871 0
781 855 872 0
781 -855 -872 0
-781 855 -872 0
-781 -855 872 0
258 621 -873 0
258 -621 873 0
-258 621 873 0
-258 -621 -873 0
185 601 -848 0
185 -601 848 0
-185 601 848 0
-185 -601 -848 0
702 856 -874 0
702 -856 874 0
-702 856 874 0
-702 -856 -874 0
599 662 875 0
599 -662 -875 0
-599 662 -875 0
-599 -662 875 0
327 784 876 0
327 -784 -876 0
-327 784 -876 0
-327 -784 876 0
12 392 -831 0
12 -392 831 0
-12 392 831 0
-12 -392 -831 0
741 821 -872 0
741 -821 872 0
-741 821 872 0
-741 -821 -872 0
408 735 763 0
408 -735 -763 0
-408 735 -763 0
-408 -735 763 0
147 693 877 0
147 -693 -877 0
-147 693 -877 0
-147 -693 877 0
410 644 878 0
410 -644 -878 0
-410 644 -878 0
-410 -644 878 0
527 879 -880 0
527 -879 880 0
-527 879 880 0
-527 -879 -880 0
360 674 -707 0
360 -674 707 0
-360 674 707 0
-360 -674 -707 0
90 244 -778 0
90 -244 778 0
-90 244 778 0
-90 -244 -778 0
304 418 525 0
304 -418 -525 0
-304 418 -525 0
-304 -418 525 0
584 694 881 0
584 -694 -881 0
-584 694 -881 0
-584 -694 881 0
274 679 -866 0
274 -679 866 0
-274 679 866 0
-274 -679 -866 0
241 528 -742 0
241 -528 742 0
-241 528 742 0
-241 -528 -742 0
193 748 -852 0
193 -748 852 0
-193 748 852 0
-193 -748 -852 0
247 624 -695 0
247 -624 695 0
-247 624 695 0
-247 -624 -695 0
587 819 -882 0
587 -819 882 0
-587 819 882 0
-587 -819 -882 0
585 785 851 0
585 -785 -851 0
-585 785 -851 0
-585 -785 851 0
685 836 883 0
685 -836 -883 0
-685 836 -883 0
-685 -836 883 0
254 362 780 0
254 -362 -780 0
-254 362 -780 0
-254 -362 780 0
506 521 -837 0
506 -521 837 0
-506 521 837 0
-506 -521 -837 0
407 660 -875 0
407 -660 875 0
-407 660 875 0
-407 -660 -875 0
460 480 -834 0
460 -480 834 0
-460 480 834 0
-460 -480 -834 0
681 792 862 0
681 -792 -862 0
-681 792 -862 0
-681 -792 862 0
348 508 873 0
348 -508 -873 0
-348 508 -873 0
-348 -508 873 0
771 789 -865 0
771 -789 865 0
-771 789 865 0
-771 -789 -865 0
600 772 -803 0
600 -772 803 0
-600 772 803 0
-600 -772 -803 0
366 634 -883 0
366 -634 883 0
-366 634 883 0
-366 -634 -883 0
199 382 762 0
199 -382 -762 0
-199 382 -762 0
-199 -382 762 0
498 676 -884 0
498 -676 884 0
-498 676 884 0
-498 -676 -884 0
307 494 860 0
307 -494 -860 0
-307 494 -860 0
-307 -494 860 0
109 269 767 0
109 -269 -767 0
-109 269 -767 0
-109 -269 767 0
446 796 -885 0
446 -796 885 0
-446 796 885 0
-446 -796 -885 0
495 731 -746 0
495 -731 746 0
-495 731 746 0
-495 -731 -746 0
552 699 -886 0
552 -699 886 0
-552 699 886 0
-552 -699 -886 0
238 876 886 0
238 -876 -886 0
-238 876 -886 0
-238 -876 886 0
68 278 -887 0
68 -278 887 0
-68 278 887 0
-68 -278 -887 0
209 255 874 0
209 -255 -874 0
-209 255 -874 0
-209 -255 874 0
526 680 -843 0
526 -680 843 0
-526 680 843 0
-526 -680 -843 0
450 691 888 0
450 -691 -888 0
-450 691 -888 0
-450 -691 888 0
672 815 858 0
672 -815 -858 0
-672 815 -858 0
-672 -815 858 0
590 853 -889 0
590 -853 889 0
-590 853 889 0
-590 -853 -889 0
581 879 890 0
581 -879 -890 0
-581 879 -890 0
-581 -879 890 0
129 263 -891 0
129 -263 891 0
-129 263 891 0
-129 -263 -891 0
642 864 -888 0
642 -864 888 0
-642 864 888 0
-642 -864 -888 0
537 610 841 0
537 -610 -841 0
-537 610 -841 0
-537 -610 841 0
110 356 764 0
110 -356 -764 0
-110 356 -764 0
-110 -356 764 0
194 737 -880 0
194 -737 880 0
-194 737 880 0
-194 -737 -880 0
118 727 822 0
118 -727 -822 0
-118 727 -822 0
-118 -727 822 0
847 892 -893 0
847 -892 893 0
-847 892 893 0
-847 -892 -893 0
541 844 -894 0
541 -844 894 0
-541 844 894 0
-541 -844 -894 0
625 830 -894 0
625 -830 894 0
-625 830 894 0
-625 -830 -894 0
728 800 -828 0
728 -800 828 0
-728 800 828 0
-728 -800 -828 0
726 758 793 0
726 -758 -793 0
-726 758 -793 0
-726 -758 793 0
231 884 887 0
231 -884 -887 0
-231 884 -887 0
-231 -884 887 0
503 565 -832 0
503 -565 832 0
-503 565 832 0
-503 -565 -832 0
363 757 -820 0
363 -757 820 0
-363 757 820 0
-363 -757 -820 0
534 759 -833 0
534 -759 833 0
-534 759 833 0
-534 -759 -833 0
279 436 -469 0
279 -436 469 0
-279 436 469 0
-279 -436 -469 0
630 885 -895 0
630 -885 895 0
-630 885 895 0
-630 -885 -895 0
179 433 -869 0
179 -433 869 0
-179 433 869 0
-179 -433 -869 0
729 766 896 0
729 -766 -896 0
-729 766 -896 0
-729 -766 896 0
513 549 761 0
513 -549 -761 0
-513 549 -761 0
-513 -549 761 0
232 343 849 0
232 -343 -849 0
-232 343 -849 0
-232 -343 849 0
113 210 897 0
113 -210 -897 0
-113 210 -897 0
-113 -210 897 0
434 861 897 0
434 -861 -897 0
-434 861 -897 0
-434 -861 897 0
535 724 756 0
535 -724 -756 0
-535 724 -756 0
-535 -724 756 0
443 805 -823 0
443 -805 823 0
-443 805 823 0
-443 -805 -823 0
504 655 -787 0
504 -655 787 0
-504 655 787 0
-504 -655 -787 0
437 697 817 0
437 -697 -817 0
-437 697 -817 0
-437 -697 817 0
49 829 867 0
49 -829 -867 0
-49 829 -867 0
-49 -829 867 0
123 261 713 0
123 -261 -713 0
-123 261 -713 0
-123 -261 713 0
466 623 -889 0
466 -623 889 0
-466 623 889 0
-466 -623 -889 0
454 859 -898 0
454 -859 898 0
-454 859 898 0
-454 -859 -898 0
687 854 890 0
687 -854 -890 0
-687 854 -890 0
-687 -854 890 0
59 682 878 0
59 -682 -878 0
-59 682 -878 0
-59 -682 878 0
275 656 -797 0
275 -656 797 0
-275 656 797 0
-275 -656 -797 0
60 62 -868 0
60 -62 868 0
-60 62 868 0
-60 -62 -868 0
387 597 -671 0
387 -597 671 0
-387 597 671 0
-387 -597 -671 0
319 598 -755 0
319 -598 755 0
-319 598 755 0
-319 -598 -755 0
341 529 882 0
341 -529 -882 0
-341 529 -882 0
-341 -529 882 0
774 835 -892 0
774 -835 892 0
-774 835 892 0
-774 -835 -892 0
25 322 809 0
25 -322 -809 0
-25 322 -809 0
-25 -322 809 0
264 845 -877 0
264 -845 877 0
-264 845 877 0
-264 -845 -877 0
40 613 -881 0
40 -613 881 0
-40 613 881 0
-40 -613 -881 0
361 412 553 0
361 -412 -553 0
-361 412 -553 0
-361 -412 553 0
152 573 -891 0
152 -573 891 0
-152 573 891 0
-152 -573 -891 0
420 776 -838 0
420 -776 838 0
-420 776 838 0
-420 -776 -838 0
744 749 811 0
744 -749 -811 0
-744 749 -811 0
-744 -749 811 0
751 825 -842 0
751 -825 842 0
-751 825 842 0
-751 -825 -842 0
826 846 863 0
826 -846 -863 0
-826 846 -863 0
-826 -846 863 0
93 421 813 0
93 -421 -813 0
-93 421 -813 0
-93 -421 813 0
373 615 -895 0
373 -615 895 0
-373 615 895 0
-373 -615 -895 0
217 768 899 0
217 -768 -899 0
-217 768 -899 0
-217 -768 899 0
550 870 898 0
550 -870 -898 0
-550 870 -898 0
-550 -870 898 0
524 753 -899 0
524 -753 899 0
-524 753 899 0
-524 -753 -899 0
37 218 -509 0
37 -218 509 0
-37 218 509 0
-37 -218 -509 0
461 588 -893 0
461 -588 893 0
-461 588 893 0
-461 -588 -893 0
14 896 900 0
14 -896 -900 0
-14 896 -900 0
-14 -896 900 0
440 514 -798 0
440 -514 798 0
-440 514 798 0
-440 -514 -798 0
333 569 -900 0
333 -569 900 0
-333 569 900 0
-333 -569 -900 0
87 346 871 0
87 -346 -871 0
-87 346 -871 0
-87 -346 871 0
