c description: Tseitin formula on random 3-regular graph on 600 verices, with odd charge
c generator: CNFgen (0.9.6)
c copyright: (C) 2012-2026 Massimo Lauria <massimo.lauria@uniroma1.it>
c url: https://massimolauria.net/cnfgen
c command line: cnfgen tseitin 600 3
c
p cnf 900 2400
1 2 -3 0
1 -2 3 0
-1 2 3 0
-1 -2 -3 0
4 5 6 0
4 -5 -6 0
-4 5 -6 0
-4 -5 6 0
7 8 -9 0
7 -8 9 0
-7 8 9 0
-7 -8 -9 0
10 11 12 0
10 -11 -12 0
-10 11 -12 0
-10 -11 12 0
13 14 -15 0
13 -14 15 0
-13 14 15 0
-13 -14 -15 0
16 17 18 0
16 -17 -18 0
-16 17 -18 0
-16 -17 18 0
19 20 -21 0
19 -20 21 0
-19 20 21 0
-19 -20 -21 0
22 23 24 0
22 -23 -24 0
-22 23 -24 0
-22 -23 24 0
25 26 -27 0
25 -26 27 0
-25 26 27 0
-25 -26 -27 0
28 29 -30 0
28 -29 30 0
-28 29 30 0
-28 -29 -30 0
31 32 -33 0
31 -32 33 0
-31 32 33 0
-31 -32 -33 0
34 35 -36 0
34 -35 36 0
-34 35 36 0
-34 -35 -36 0
37 38 39 0
37 -38 -39 0
-37 38 -39 0
-37 -38 39 0
40 41 42 0
40 -41 -42 0
-40 41 -42 0
-40 -41 42 0
43 44 45 0
43 -44 -45 0
-43 44 -45 0
-43 -44 45 0
46 47 48 0
46 -47 -48 0
-46 47 -48 0
-46 -47 48 0
49 50 51 0
49 -50 -51 0
-49 50 -51 0
-49 -50 51 0
52 53 -54 0
52 -53 54 0
-52 53 54 0
-52 -53 -54 0
55 56 57 0
55 -56 -57 0
-55 56 -57 0
-55 -56 57 0
58 59 -60 0
58 -59 60 0
-58 59 60 0
-58 -59 -60 0
61 62 63 0
61 -62 -63 0
-61 62 -63 0
-61 -62 63 0
64 65 66 0
64 -65 -66 0
-64 65 -66 0
-64 -65 66 0
67 68 -69 0
67 -68 69 0
-67 68 69 0
-67 -68 -69 0
70 71 -72 0
70 -71 72 0
-70 71 72 0
-70 -71 -72 0
73 74 75 0
73 -74 -75 0
-73 74 -75 0
-73 -74 75 0
76 77 78 0
76 -77 -78 0
-76 77 -78 0
-76 -77 78 0
79 80 81 0
79 -80 -81 0
-79 80 -81 0
-79 -80 81 0
82 83 -84 0
82 -83 84 0
-82 83 84 0
-82 -83 -84 0
85 86 -87 0
85 -86 87 0
-85 86 87 0
-85 -86 -87 0
88 89 -90 0
88 -89 90 0
-88 89 90 0
-88 -89 -90 0
91 92 -93 0
91 -92 93 0
-91 92 93 0
-91 -92 -93 0
94 95 96 0
94 -95 -96 0
-94 95 -96 0
-94 -95 96 0
97 98 -99 0
97 -98 99 0
-97 98 99 0
-97 -98 -99 0
19 88 100 0
19 -88 -100 0
-19 88 -100 0
-19 -88 100 0
101 102 103 0
101 -102 -103 0
-101 102 -103 0
-101 -102 103 0
104 105 106 0
104 -105 -106 0
-104 105 -106 0
-104 -105 106 0
107 108 -109 0
107 -108 109 0
-107 108 109 0
-107 -108 -109 0
110 111 112 0
110 -111 -112 0
-110 111 -112 0
-110 -111 112 0
91 113 -114 0
91 -113 114 0
-91 113 114 0
-91 -113 -114 0
115 116 117 0
115 -116 -117 0
-115 116 -117 0
-115 -116 117 0
118 119 120 0
118 -119 -120 0
-118 119 -120 0
-118 -119 120 0
121 122 123 0
121 -122 -123 0
-121 122 -123 0
-121 -122 123 0
124 125 126 0
124 -125 -126 0
-124 125 -126 0
-124 -125 126 0
127 128 129 0
127 -128 -129 0
-127 128 -129 0
-127 -128 129 0
130 131 132 0
130 -131 -132 0
-130 131 -132 0
-130 -131 132 0
133 134 -135 0
133 -134 135 0
-133 134 135 0
-133 -134 -135 0
101 136 -137 0
101 -136 137 0
-101 136 137 0
-101 -136 -137 0
138 139 -140 0
138 -139 140 0
-138 139 140 0
-138 -139 -140 0
37 141 -142 0
37 -141 142 0
-37 141 142 0
-37 -141 -142 0
143 144 -145 0
143 -144 145 0
-143 144 145 0
-143 -144 -145 0
146 147 -148 0
146 -147 148 0
-146 147 148 0
-146 -147 -148 0
149 150 -151 0
149 -150 151 0
-149 150 151 0
-149 -150 -151 0
115 152 153 0
115 -152 -153 0
-115 152 -153 0
-115 -152 153 0
154 155 156 0
154 -155 -156 0
-154 155 -156 0
-154 -155 156 0
157 158 -159 0
157 -158 159 0
-157 158 159 0
-157 -158 -159 0
160 161 162 0
160 -161 -162 0
-160 161 -162 0
-160 -161 162 0
163 164 -165 0
163 -164 165 0
-163 164 165 0
-163 -164 -165 0
61 166 167 0
61 -166 -167 0
-61 166 -167 0
-61 -166 167 0
168 169 -170 0
168 -169 170 0
-168 169 170 0
-168 -169 -170 0
171 172 -173 0
171 -172 173 0
-171 172 173 0
-171 -172 -173 0
174 175 -176 0
174 -175 176 0
-174 175 176 0
-174 -175 -176 0
177 178 179 0
177 -178 -179 0
-177 178 -179 0
-177 -178 179 0
180 181 -182 0
180 -181 182 0
-180 181 182 0
-180 -181 -182 0
38 183 -184 0
38 -183 184 0
-38 183 184 0
-38 -183 -184 0
185 186 -187 0
185 -186 187 0
-185 186 187 0
-185 -186 -187 0
188 189 190 0
188 -189 -190 0
-188 189 -190 0
-188 -189 190 0
73 191 -192 0
73 -191 192 0
-73 191 192 0
-73 -191 -192 0
188 193 194 0
188 -193 -194 0
-188 193 -194 0
-188 -193 194 0
195 196 197 0
195 -196 -197 0
-195 196 -197 0
-195 -196 197 0
149 198 199 0
149 -198 -199 0
-149 198 -199 0
-149 -198 199 0
200 201 -202 0
200 -201 202 0
-200 201 202 0
-200 -201 -202 0
203 204 205 0
203 -204 -205 0
-203 204 -205 0
-203 -204 205 0
136 206 -207 0
136 -206 207 0
-136 206 207 0
-136 -206 -207 0
208 209 -210 0
208 -209 210 0
-208 209 210 0
-208 -209 -210 0
211 212 213 0
211 -212 -213 0
-211 212 -213 0
-211 -212 213 0
214 215 -216 0
214 -215 216 0
-214 215 216 0
-214 -215 -216 0
217 218 -219 0
217 -218 219 0
-217 218 219 0
-217 -218 -219 0
118 220 -221 0
118 -220 221 0
-118 220 221 0
-118 -220 -221 0
222 223 -224 0
222 -223 224 0
-222 223 224 0
-222 -223 -224 0
22 225 226 0
22 -225 -226 0
-22 225 -226 0
-22 -225 226 0
227 228 -229 0
227 -228 229 0
-227 228 229 0
-227 -228 -229 0
230 231 -232 0
230 -231 232 0
-230 231 232 0
-230 -231 -232 0
222 233 -234 0
222 -233 234 0
-222 233 234 0
-222 -233 -234 0
235 236 -237 0
235 -236 237 0
-235 236 237 0
-235 -236 -237 0
185 238 -239 0
185 -238 239 0
-185 238 239 0
-185 -238 -239 0
100 240 -241 0
100 -240 241 0
-100 240 241 0
-100 -240 -241 0
242 243 -244 0
242 -243 244 0
-242 243 244 0
-242 -243 -244 0
245 246 -247 0
245 -246 247 0
-245 246 247 0
-245 -246 -247 0
248 249 -250 0
248 -249 250 0
-248 249 250 0
-248 -249 -250 0
55 251 -252 0
55 -251 252 0
-55 251 252 0
-55 -251 -252 0
154 253 254 0
154 -253 -254 0
-154 253 -254 0
-154 -253 254 0
255 256 -257 0
255 -256 257 0
-255 256 257 0
-255 -256 -257 0
233 258 259 0
233 -258 -259 0
-233 258 -259 0
-233 -258 259 0
260 261 -262 0
260 -261 262 0
-260 261 262 0
-260 -261 -262 0
263 264 265 0
263 -264 -265 0
-263 264 -265 0
-263 -264 265 0
230 266 -267 0
230 -266 267 0
-230 266 267 0
-230 -266 -267 0
1 268 269 0
1 -268 -269 0
-1 268 -269 0
-1 -268 269 0
225 270 -271 0
225 -270 271 0
-225 270 271 0
-225 -270 -271 0
92 238 -272 0
92 -238 272 0
-92 238 272 0
-92 -238 -272 0
143 273 274 0
143 -273 -274 0
-143 273 -274 0
-143 -273 274 0
110 275 276 0
110 -275 -276 0
-110 275 -276 0
-110 -275 276 0
107 277 278 0
107 -277 -278 0
-107 277 -278 0
-107 -277 278 0
25 104 279 0
25 -104 -279 0
-25 104 -279 0
-25 -104 279 0
280 281 282 0
280 -281 -282 0
-280 281 -282 0
-280 -281 282 0
283 284 285 0
283 -284 -285 0
-283 284 -285 0
-283 -284 285 0
286 287 -288 0
286 -287 288 0
-286 287 288 0
-286 -287 -288 0
289 290 -291 0
289 -290 291 0
-289 290 291 0
-289 -290 -291 0
292 293 -294 0
292 -293 294 0
-292 293 294 0
-292 -293 -294 0
242 295 296 0
242 -295 -296 0
-242 295 -296 0
-242 -295 296 0
70 297 298 0
70 -297 -298 0
-70 297 -298 0
-70 -297 298 0
299 300 301 0
299 -300 -301 0
-299 300 -301 0
-299 -300 301 0
302 303 304 0
302 -303 -304 0
-302 303 -304 0
-302 -303 304 0
305 306 -307 0
305 -306 307 0
-305 306 307 0
-305 -306 -307 0
127 174 -308 0
127 -174 308 0
-127 174 308 0
-127 -174 -308 0
248 309 -310 0
248 -309 310 0
-248 309 310 0
-248 -309 -310 0
311 312 313 0
311 -312 -313 0
-311 312 -313 0
-311 -312 313 0
260 314 -315 0
260 -314 315 0
-260 314 315 0
-260 -314 -315 0
316 317 -318 0
316 -317 318 0
-316 317 318 0
-316 -317 -318 0
319 320 321 0
319 -320 -321 0
-319 320 -321 0
-319 -320 321 0
322 323 -324 0
322 -323 324 0
-322 323 324 0
-322 -323 -324 0
56 325 -326 0
56 -325 326 0
-56 325 326 0
-56 -325 -326 0
327 328 -329 0
327 -328 329 0
-327 328 329 0
-327 -328 -329 0
186 330 -331 0
186 -330 331 0
-186 330 331 0
-186 -330 -331 0
119 332 -333 0
119 -332 333 0
-119 332 333 0
-119 -332 -333 0
334 335 -336 0
334 -335 336 0
-334 335 336 0
-334 -335 -336 0
4 337 338 0
4 -337 -338 0
-4 337 -338 0
-4 -337 338 0
339 340 341 0
339 -340 -341 0
-339 340 -341 0
-339 -340 341 0
342 343 344 0
342 -343 -344 0
-342 343 -344 0
-342 -343 344 0
62 345 346 0
62 -345 -346 0
-62 345 -346 0
-62 -345 346 0
347 348 349 0
347 -348 -349 0
-347 348 -349 0
-347 -348 349 0
350 351 352 0
350 -351 -352 0
-350 351 -352 0
-350 -351 352 0
297 339 -353 0
297 -339 353 0
-297 339 353 0
-297 -339 -353 0
354 355 356 0
354 -355 -356 0
-354 355 -356 0
-354 -355 356 0
357 358 -359 0
357 -358 359 0
-357 358 359 0
-357 -358 -359 0
360 361 -362 0
360 -361 362 0
-360 361 362 0
-360 -361 -362 0
13 363 364 0
13 -363 -364 0
-13 363 -364 0
-13 -363 364 0
365 366 367 0
365 -366 -367 0
-365 366 -367 0
-365 -366 367 0
102 311 -368 0
102 -311 368 0
-102 311 368 0
-102 -311 -368 0
292 369 -370 0
292 -369 370 0
-292 369 370 0
-292 -369 -370 0
371 372 373 0
371 -372 -373 0
-371 372 -373 0
-371 -372 373 0
322 374 -375 0
322 -374 375 0
-322 374 375 0
-322 -374 -375 0
323 376 -377 0
323 -376 377 0
-323 376 377 0
-323 -376 -377 0
378 379 -380 0
378 -379 380 0
-378 379 380 0
-378 -379 -380 0
160 381 382 0
160 -381 -382 0
-160 381 -382 0
-160 -381 382 0
383 384 385 0
383 -384 -385 0
-383 384 -385 0
-383 -384 385 0
386 387 -388 0
386 -387 388 0
-386 387 388 0
-386 -387 -388 0
389 390 391 0
389 -390 -391 0
-389 390 -391 0
-389 -390 391 0
392 393 394 0
392 -393 -394 0
-392 393 -394 0
-392 -393 394 0
374 395 396 0
374 -395 -396 0
-374 395 -396 0
-374 -395 396 0
177 293 397 0
177 -293 -397 0
-177 293 -397 0
-177 -293 397 0
111 398 399 0
111 -398 -399 0
-111 398 -399 0
-111 -398 399 0
283 400 401 0
283 -400 -401 0
-283 400 -401 0
-283 -400 401 0
337 402 403 0
337 -402 -403 0
-337 402 -403 0
-337 -402 403 0
121 404 405 0
121 -404 -405 0
-121 404 -405 0
-121 -404 405 0
325 406 -407 0
325 -406 407 0
-325 406 407 0
-325 -406 -407 0
40 408 409 0
40 -408 -409 0
-40 408 -409 0
-40 -408 409 0
251 410 -411 0
251 -410 411 0
-251 410 411 0
-251 -410 -411 0
198 266 -412 0
198 -266 412 0
-198 266 412 0
-198 -266 -412 0
277 413 -414 0
277 -413 414 0
-277 413 414 0
-277 -413 -414 0
314 415 416 0
314 -415 -416 0
-314 415 -416 0
-314 -415 416 0
417 418 -419 0
417 -418 419 0
-417 418 419 0
-417 -418 -419 0
161 420 -421 0
161 -420 421 0
-161 420 421 0
-161 -420 -421 0
299 422 -423 0
299 -422 423 0
-299 422 423 0
-299 -422 -423 0
163 360 424 0
163 -360 -424 0
-163 360 -424 0
-163 -360 424 0
2 425 -426 0
2 -425 426 0
-2 425 426 0
-2 -425 -426 0
124 275 427 0
124 -275 -427 0
-124 275 -427 0
-124 -275 427 0
79 428 -429 0
79 -428 429 0
-79 428 429 0
-79 -428 -429 0
305 389 430 0
305 -389 -430 0
-305 389 -430 0
-305 -389 430 0
431 432 433 0
431 -432 -433 0
-431 432 -433 0
-431 -432 433 0
211 434 -435 0
211 -434 435 0
-211 434 435 0
-211 -434 -435 0
436 437 438 0
436 -437 -438 0
-436 437 -438 0
-436 -437 438 0
130 439 440 0
130 -439 -440 0
-130 439 -440 0
-130 -439 440 0
441 442 -443 0
441 -442 443 0
-441 442 443 0
-441 -442 -443 0
243 383 444 0
243 -383 -444 0
-243 383 -444 0
-243 -383 444 0
445 446 -447 0
445 -446 447 0
-445 446 447 0
-445 -446 -447 0
113 128 -448 0
113 -128 448 0
-113 128 448 0
-113 -128 -448 0
449 450 -451 0
449 -450 451 0
-449 450 451 0
-449 -450 -451 0
340 452 -453 0
340 -452 453 0
-340 452 453 0
-340 -452 -453 0
390 454 455 0
390 -454 -455 0
-390 454 -455 0
-390 -454 455 0
67 456 -457 0
67 -456 457 0
-67 456 457 0
-67 -456 -457 0
5 458 -459 0
5 -458 459 0
-5 458 459 0
-5 -458 -459 0
226 460 461 0
226 -460 -461 0
-226 460 -461 0
-226 -460 461 0
381 415 462 0
381 -415 -462 0
-381 415 -462 0
-381 -415 462 0
463 464 465 0
463 -464 -465 0
-463 464 -465 0
-463 -464 465 0
466 467 -468 0
466 -467 468 0
-466 467 468 0
-466 -467 -468 0
295 469 -470 0
295 -469 470 0
-295 469 470 0
-295 -469 -470 0
397 471 -472 0
397 -471 472 0
-397 471 472 0
-397 -471 -472 0
473 474 475 0
473 -474 -475 0
-473 474 -475 0
-473 -474 475 0
452 476 -477 0
452 -476 477 0
-452 476 477 0
-452 -476 -477 0
23 478 479 0
23 -478 -479 0
-23 478 -479 0
-23 -478 479 0
480 481 482 0
480 -481 -482 0
-480 481 -482 0
-480 -481 482 0
195 483 -484 0
195 -483 484 0
-195 483 484 0
-195 -483 -484 0
417 485 -486 0
417 -485 486 0
-417 485 486 0
-417 -485 -486 0
487 488 489 0
487 -488 -489 0
-487 488 -489 0
-487 -488 489 0
212 306 490 0
212 -306 -490 0
-212 306 -490 0
-212 -306 490 0
491 492 493 0
491 -492 -493 0
-491 492 -493 0
-491 -492 493 0
494 495 -496 0
494 -495 496 0
-494 495 496 0
-494 -495 -496 0
361 368 497 0
361 -368 -497 0
-361 368 -497 0
-361 -368 497 0
208 498 -499 0
208 -498 499 0
-208 498 499 0
-208 -498 -499 0
354 500 -501 0
354 -500 501 0
-354 500 501 0
-354 -500 -501 0
239 502 -503 0
239 -502 503 0
-239 502 503 0
-239 -502 -503 0
255 504 505 0
255 -504 -505 0
-255 504 -505 0
-255 -504 505 0
49 187 506 0
49 -187 -506 0
-49 187 -506 0
-49 -187 506 0
466 507 508 0
466 -507 -508 0
-466 507 -508 0
-466 -507 508 0
235 509 510 0
235 -509 -510 0
-235 509 -510 0
-235 -509 510 0
511 512 513 0
511 -512 -513 0
-511 512 -513 0
-511 -512 513 0
52 137 -514 0
52 -137 514 0
-52 137 514 0
-52 -137 -514 0
94 515 -516 0
94 -515 516 0
-94 515 516 0
-94 -515 -516 0
422 517 -518 0
422 -517 518 0
-422 517 518 0
-422 -517 -518 0
64 376 -497 0
64 -376 497 0
-64 376 497 0
-64 -376 -497 0
166 319 519 0
166 -319 -519 0
-166 319 -519 0
-166 -319 519 0
363 384 520 0
363 -384 -520 0
-363 384 -520 0
-363 -384 520 0
406 521 522 0
406 -521 -522 0
-406 521 -522 0
-406 -521 522 0
423 523 -524 0
423 -523 524 0
-423 523 524 0
-423 -523 -524 0
525 526 -527 0
525 -526 527 0
-525 526 527 0
-525 -526 -527 0
463 528 -529 0
463 -528 529 0
-463 528 529 0
-463 -528 -529 0
530 531 532 0
530 -531 -532 0
-530 531 -532 0
-530 -531 532 0
65 533 534 0
65 -533 -534 0
-65 533 -534 0
-65 -533 534 0
535 536 -537 0
535 -536 537 0
-535 536 537 0
-535 -536 -537 0
538 539 540 0
538 -539 -540 0
-538 539 -540 0
-538 -539 540 0
249 436 -541 0
249 -436 541 0
-249 436 541 0
-249 -436 -541 0
80 424 -542 0
80 -424 542 0
-80 424 542 0
-80 -424 -542 0
543 544 -545 0
543 -544 545 0
-543 544 545 0
-543 -544 -545 0
382 439 -546 0
382 -439 546 0
-382 439 546 0
-382 -439 -546 0
547 548 549 0
547 -548 -549 0
-547 548 -549 0
-547 -548 549 0
550 551 552 0
550 -551 -552 0
-550 551 -552 0
-550 -551 552 0
164 334 -553 0
164 -334 553 0
-164 334 553 0
-164 -334 -553 0
554 555 -556 0
554 -555 556 0
-554 555 556 0
-554 -555 -556 0
150 209 557 0
150 -209 -557 0
-150 209 -557 0
-150 -209 557 0
203 392 -538 0
203 -392 538 0
-203 392 538 0
-203 -392 -538 0
324 533 -558 0
324 -533 558 0
-324 533 558 0
-324 -533 -558 0
53 196 335 0
53 -196 -335 0
-53 196 -335 0
-53 -196 335 0
46 347 -559 0
46 -347 559 0
-46 347 559 0
-46 -347 -559 0
85 434 560 0
85 -434 -560 0
-85 434 -560 0
-85 -434 560 0
441 561 562 0
441 -561 -562 0
-441 561 -562 0
-441 -561 562 0
393 563 564 0
393 -563 -564 0
-393 563 -564 0
-393 -563 564 0
191 565 566 0
191 -565 -566 0
-191 565 -566 0
-191 -565 566 0
371 557 567 0
371 -557 -567 0
-371 557 -567 0
-371 -557 567 0
568 569 -570 0
568 -569 570 0
-568 569 570 0
-568 -569 -570 0
10 204 -571 0
10 -204 571 0
-10 204 571 0
-10 -204 -571 0
469 572 573 0
469 -572 -573 0
-469 572 -573 0
-469 -572 573 0
574 575 576 0
574 -575 -576 0
-574 575 -576 0
-574 -575 576 0
286 342 -577 0
286 -342 577 0
-286 342 577 0
-286 -342 -577 0
568 578 579 0
568 -578 -579 0
-568 578 -579 0
-568 -578 579 0
567 580 581 0
567 -580 -581 0
-567 580 -581 0
-567 -580 581 0
175 378 -528 0
175 -378 528 0
-175 378 528 0
-175 -378 -528 0
86 410 582 0
86 -410 -582 0
-86 410 -582 0
-86 -410 582 0
428 583 584 0
428 -583 -584 0
-428 583 -584 0
-428 -583 584 0
11 585 586 0
11 -585 -586 0
-11 585 -586 0
-11 -585 586 0
95 587 -588 0
95 -587 588 0
-95 587 588 0
-95 -587 -588 0
43 296 589 0
43 -296 -589 0
-43 296 -589 0
-43 -296 589 0
168 289 590 0
168 -289 -590 0
-168 289 -590 0
-168 -289 590 0
245 591 592 0
245 -591 -592 0
-245 591 -592 0
-245 -591 592 0
593 594 595 0
593 -594 -595 0
-593 594 -595 0
-593 -594 595 0
96 144 596 0
96 -144 -596 0
-96 144 -596 0
-96 -144 596 0
597 598 -599 0
597 -598 599 0
-597 598 599 0
-597 -598 -599 0
445 600 -601 0
445 -600 601 0
-445 600 601 0
-445 -600 -601 0
485 593 602 0
485 -593 -602 0
-485 593 -602 0
-485 -593 602 0
350 456 603 0
350 -456 -603 0
-350 456 -603 0
-350 -456 603 0
200 604 605 0
200 -604 -605 0
-200 604 -605 0
-200 -604 605 0
498 606 -607 0
498 -606 607 0
-498 606 607 0
-498 -606 -607 0
180 273 608 0
180 -273 -608 0
-180 273 -608 0
-180 -273 608 0
227 609 -610 0
227 -609 610 0
-227 609 610 0
-227 -609 -610 0
611 612 -613 0
611 -612 613 0
-611 612 613 0
-611 -612 -613 0
357 614 615 0
357 -614 -615 0
-357 614 -615 0
-357 -614 615 0
369 616 617 0
369 -616 -617 0
-369 616 -617 0
-369 -616 617 0
618 619 -620 0
618 -619 620 0
-618 619 620 0
-618 -619 -620 0
530 621 622 0
530 -621 -622 0
-530 621 -622 0
-530 -621 622 0
623 624 -625 0
623 -624 625 0
-623 624 625 0
-623 -624 -625 0
626 627 628 0
626 -627 -628 0
-626 627 -628 0
-626 -627 628 0
58 217 -629 0
58 -217 629 0
-58 217 629 0
-58 -217 -629 0
169 214 -442 0
169 -214 442 0
-169 214 442 0
-169 -214 -442 0
476 580 630 0
476 -580 -630 0
-476 580 -630 0
-476 -580 630 0
151 256 -631 0
151 -256 631 0
-151 256 631 0
-151 -256 -631 0
632 633 -634 0
632 -633 634 0
-632 633 634 0
-632 -633 -634 0
89 635 636 0
89 -635 -636 0
-89 635 -636 0
-89 -635 636 0
76 637 -638 0
76 -637 638 0
-76 637 638 0
-76 -637 -638 0
511 639 640 0
511 -639 -640 0
-511 639 -640 0
-511 -639 640 0
641 642 -643 0
641 -642 643 0
-641 642 643 0
-641 -642 -643 0
192 375 -644 0
192 -375 644 0
-192 375 644 0
-192 -375 -644 0
77 645 646 0
77 -645 -646 0
-77 645 -646 0
-77 -645 646 0
171 647 648 0
171 -647 -648 0
-171 647 -648 0
-171 -647 648 0
244 649 -650 0
244 -649 650 0
-244 649 650 0
-244 -649 -650 0
82 351 611 0
82 -351 -611 0
-82 351 -611 0
-82 -351 611 0
290 647 651 0
290 -647 -651 0
-290 647 -651 0
-290 -647 651 0
480 554 652 0
480 -554 -652 0
-480 554 -652 0
-480 -554 652 0
122 653 654 0
122 -653 -654 0
-122 653 -654 0
-122 -653 654 0
193 218 -569 0
193 -218 569 0
-193 218 569 0
-193 -218 -569 0
413 460 655 0
413 -460 -655 0
-413 460 -655 0
-413 -460 655 0
236 656 657 0
236 -656 -657 0
-236 656 -657 0
-236 -656 657 0
494 623 658 0
494 -623 -658 0
-494 623 -658 0
-494 -623 658 0
464 483 659 0
464 -483 -659 0
-464 483 -659 0
-464 -483 659 0
201 660 -661 0
201 -660 661 0
-201 660 661 0
-201 -660 -661 0
630 662 -663 0
630 -662 663 0
-630 662 663 0
-630 -662 -663 0
263 641 664 0
263 -641 -664 0
-263 641 -664 0
-263 -641 664 0
665 666 667 0
665 -666 -667 0
-665 666 -667 0
-665 -666 667 0
157 618 668 0
157 -618 -668 0
-157 618 -668 0
-157 -618 668 0
315 570 669 0
315 -570 -669 0
-315 570 -669 0
-315 -570 669 0
478 670 -671 0
478 -670 671 0
-478 670 671 0
-478 -670 -671 0
365 394 632 0
365 -394 -632 0
-365 394 -632 0
-365 -394 632 0
672 673 -674 0
672 -673 674 0
-672 673 674 0
-672 -673 -674 0
589 675 -676 0
589 -675 676 0
-589 675 676 0
-589 -675 -676 0
231 585 -677 0
231 -585 677 0
-231 585 677 0
-231 -585 -677 0
678 679 680 0
678 -679 -680 0
-678 679 -680 0
-678 -679 680 0
681 682 683 0
681 -682 -683 0
-681 682 -683 0
-681 -682 683 0
258 411 684 0
258 -411 -684 0
-258 411 -684 0
-258 -411 684 0
563 685 686 0
563 -685 -686 0
-563 685 -686 0
-563 -685 686 0
581 687 688 0
581 -687 -688 0
-581 687 -688 0
-581 -687 688 0
26 689 -690 0
26 -689 690 0
-26 689 690 0
-26 -689 -690 0
691 692 -693 0
691 -692 693 0
-691 692 693 0
-691 -692 -693 0
223 264 694 0
223 -264 -694 0
-223 264 -694 0
-223 -264 694 0
454 651 695 0
454 -651 -695 0
-454 651 -695 0
-454 -651 695 0
268 572 583 0
268 -572 -583 0
-268 572 -583 0
-268 -572 583 0
400 696 697 0
400 -696 -697 0
-400 696 -697 0
-400 -696 697 0
698 699 700 0
698 -699 -700 0
-698 699 -700 0
-698 -699 700 0
97 473 701 0
97 -473 -701 0
-97 473 -701 0
-97 -473 701 0
39 702 -703 0
39 -702 703 0
-39 702 703 0
-39 -702 -703 0
291 550 704 0
291 -550 -704 0
-291 550 -704 0
-291 -550 704 0
705 706 707 0
705 -706 -707 0
-705 706 -707 0
-705 -706 707 0
614 626 -708 0
614 -626 708 0
-614 626 708 0
-614 -626 -708 0
59 709 -710 0
59 -709 710 0
-59 709 710 0
-59 -709 -710 0
534 600 711 0
534 -600 -711 0
-534 600 -711 0
-534 -600 711 0
677 712 713 0
677 -712 -713 0
-677 712 -713 0
-677 -712 713 0
20 539 -714 0
20 -539 714 0
-20 539 714 0
-20 -539 -714 0
181 287 612 0
181 -287 -612 0
-181 287 -612 0
-181 -287 612 0
146 512 -715 0
146 -512 715 0
-146 512 715 0
-146 -512 -715 0
167 199 716 0
167 -199 -716 0
-167 199 -716 0
-167 -199 716 0
717 718 -719 0
717 -718 719 0
-717 718 719 0
-717 -718 -719 0
477 486 504 0
477 -486 -504 0
-477 486 -504 0
-477 -486 504 0
213 364 385 0
213 -364 -385 0
-213 364 -385 0
-213 -364 385 0
495 701 -720 0
495 -701 720 0
-495 701 720 0
-495 -701 -720 0
57 461 -465 0
57 -461 465 0
-57 461 465 0
-57 -461 -465 0
720 721 722 0
720 -721 -722 0
-720 721 -722 0
-720 -721 722 0
71 631 633 0
71 -631 -633 0
-71 631 -633 0
-71 -631 633 0
276 723 724 0
276 -723 -724 0
-276 723 -724 0
-276 -723 724 0
280 725 726 0
280 -725 -726 0
-280 725 -726 0
-280 -725 726 0
727 728 729 0
727 -728 -729 0
-727 728 -729 0
-727 -728 729 0
655 691 -730 0
655 -691 730 0
-655 691 730 0
-655 -691 -730 0
491 500 -619 0
491 -500 619 0
-491 500 619 0
-491 -500 -619 0
7 731 -732 0
7 -731 732 0
-7 731 732 0
-7 -731 -732 0
502 733 -734 0
502 -733 734 0
-502 733 734 0
-502 -733 -734 0
259 523 -735 0
259 -523 735 0
-259 523 735 0
-259 -523 -735 0
224 736 -737 0
224 -736 737 0
-224 736 737 0
-224 -736 -737 0
660 738 -739 0
660 -738 739 0
-660 738 739 0
-660 -738 -739 0
133 182 740 0
133 -182 -740 0
-133 182 -740 0
-133 -182 740 0
78 152 -696 0
78 -152 696 0
-78 152 696 0
-78 -152 -696 0
28 138 670 0
28 -138 -670 0
-28 138 -670 0
-28 -138 670 0
3 587 695 0
3 -587 -695 0
-3 587 -695 0
-3 -587 695 0
503 656 741 0
503 -656 -741 0
-503 656 -741 0
-503 -656 741 0
158 742 -743 0
158 -742 743 0
-158 742 743 0
-158 -742 -743 0
458 744 745 0
458 -744 -745 0
-458 744 -745 0
-458 -744 745 0
246 746 747 0
246 -746 -747 0
-246 746 -747 0
-246 -746 747 0
615 742 748 0
615 -742 -748 0
-615 742 -748 0
-615 -742 748 0
288 717 749 0
288 -717 -749 0
-288 717 -749 0
-288 -717 749 0
16 141 750 0
16 -141 -750 0
-16 141 -750 0
-16 -141 750 0
189 312 407 0
189 -312 -407 0
-189 312 -407 0
-189 -312 407 0
629 751 -752 0
629 -751 752 0
-629 751 752 0
-629 -751 -752 0
279 753 754 0
279 -753 -754 0
-279 753 -754 0
-279 -753 754 0
644 755 -756 0
644 -755 756 0
-644 755 756 0
-644 -755 -756 0
427 757 758 0
427 -757 -758 0
-427 757 -758 0
-427 -757 758 0
206 759 -760 0
206 -759 760 0
-206 759 760 0
-206 -759 -760 0
761 762 763 0
761 -762 -763 0
-761 762 -763 0
-761 -762 763 0
116 281 531 0
116 -281 -531 0
-116 281 -531 0
-116 -281 531 0
228 564 -764 0
228 -564 764 0
-228 564 764 0
-228 -564 -764 0
559 765 -766 0
559 -765 766 0
-559 765 766 0
-559 -765 -766 0
17 767 768 0
17 -767 -768 0
-17 767 -768 0
-17 -767 768 0
435 462 -525 0
435 -462 525 0
-435 462 525 0
-435 -462 -525 0
129 358 -565 0
129 -358 565 0
-129 358 565 0
-129 -358 -565 0
60 386 -769 0
60 -386 769 0
-60 386 769 0
-60 -386 -769 0
302 496 597 0
302 -496 -597 0
-302 496 -597 0
-302 -496 597 0
689 751 770 0
689 -751 -770 0
-689 751 -770 0
-689 -751 770 0
41 398 -540 0
41 -398 540 0
-41 398 540 0
-41 -398 -540 0
440 586 -771 0
440 -586 771 0
-440 586 771 0
-440 -586 -771 0
29 210 -772 0
29 -210 772 0
-29 210 772 0
-29 -210 -772 0
183 404 665 0
183 -404 -665 0
-183 404 -665 0
-183 -404 665 0
316 681 773 0
316 -681 -773 0
-316 681 -773 0
-316 -681 773 0
18 131 -338 0
18 -131 338 0
-18 131 338 0
-18 -131 -338 0
359 471 771 0
359 -471 -771 0
-359 471 -771 0
-359 -471 771 0
395 499 -774 0
395 -499 774 0
-395 499 774 0
-395 -499 -774 0
309 775 -776 0
309 -775 776 0
-309 775 776 0
-309 -775 -776 0
744 777 -778 0
744 -777 778 0
-744 777 778 0
-744 -777 -778 0
317 348 352 0
317 -348 -352 0
-317 348 -352 0
-317 -348 352 0
750 777 779 0
750 -777 -779 0
-750 777 -779 0
-750 -777 779 0
234 609 780 0
234 -609 -780 0
-234 609 -780 0
-234 -609 780 0
98 781 -782 0
98 -781 782 0
-98 781 782 0
-98 -781 -782 0
648 661 -783 0
648 -661 783 0
-648 661 783 0
-648 -661 -783 0
327 449 642 0
327 -449 -642 0
-327 449 -642 0
-327 -449 642 0
692 784 785 0
692 -784 -785 0
-692 784 -785 0
-692 -784 785 0
219 757 -786 0
219 -757 786 0
-219 757 786 0
-219 -757 -786 0
215 659 -787 0
215 -659 787 0
-215 659 787 0
-215 -659 -787 0
420 521 738 0
420 -521 -738 0
-420 521 -738 0
-420 -521 738 0
47 505 -671 0
47 -505 671 0
-47 505 671 0
-47 -505 -671 0
652 653 714 0
652 -653 -714 0
-652 653 -714 0
-652 -653 714 0
6 741 788 0
6 -741 -788 0
-6 741 -788 0
-6 -741 788 0
535 733 -789 0
535 -733 789 0
-535 733 789 0
-535 -733 -789 0
734 790 791 0
734 -790 -791 0
-734 790 -791 0
-734 -790 791 0
303 492 -743 0
303 -492 743 0
-303 492 743 0
-303 -492 -743 0
74 450 -604 0
74 -450 604 0
-74 450 604 0
-74 -450 -604 0
425 792 793 0
425 -792 -793 0
-425 792 -793 0
-425 -792 793 0
784 794 -795 0
784 -794 795 0
-784 794 795 0
-784 -794 -795 0
207 558 796 0
207 -558 -796 0
-207 558 -796 0
-207 -558 796 0
551 797 -798 0
551 -797 798 0
-551 797 798 0
-551 -797 -798 0
596 799 -800 0
596 -799 800 0
-596 799 800 0
-596 -799 -800 0
134 446 -552 0
134 -446 552 0
-134 446 552 0
-134 -446 -552 0
509 555 736 0
509 -555 -736 0
-509 555 -736 0
-509 -555 736 0
178 584 639 0
178 -584 -639 0
-178 584 -639 0
-178 -584 639 0
801 802 803 0
801 -802 -803 0
-801 802 -803 0
-801 -802 803 0
313 753 804 0
313 -753 -804 0
-313 753 -804 0
-313 -753 804 0
99 553 -805 0
99 -553 805 0
-99 553 805 0
-99 -553 -805 0
421 571 -806 0
421 -571 806 0
-421 571 806 0
-421 -571 -806 0
532 807 808 0
532 -807 -808 0
-532 807 -808 0
-532 -807 808 0
437 809 -810 0
437 -809 810 0
-437 809 810 0
-437 -809 -810 0
514 698 -811 0
514 -698 811 0
-514 698 811 0
-514 -698 -811 0
328 812 813 0
328 -812 -813 0
-328 812 -813 0
-328 -812 813 0
31 172 490 0
31 -172 -490 0
-31 172 -490 0
-31 -172 490 0
438 601 -814 0
438 -601 814 0
-438 601 814 0
-438 -601 -814 0
418 815 816 0
418 -815 -816 0
-418 815 -816 0
-418 -815 816 0
408 712 748 0
408 -712 -748 0
-408 712 -748 0
-408 -712 748 0
635 725 -817 0
635 -725 817 0
-635 725 817 0
-635 -725 -817 0
332 645 818 0
332 -645 -818 0
-332 645 -818 0
-332 -645 818 0
727 819 820 0
727 -819 -820 0
-727 819 -820 0
-727 -819 820 0
326 821 -822 0
326 -821 822 0
-326 821 822 0
-326 -821 -822 0
229 657 -823 0
229 -657 823 0
-229 657 823 0
-229 -657 -823 0
336 366 666 0
336 -366 -666 0
-336 366 -666 0
-336 -366 666 0
399 749 -824 0
399 -749 824 0
-399 749 824 0
-399 -749 -824 0
546 591 -765 0
546 -591 765 0
-546 591 765 0
-546 -591 -765 0
310 662 -825 0
310 -662 825 0
-310 662 825 0
-310 -662 -825 0
139 819 826 0
139 -819 -826 0
-139 819 -826 0
-139 -819 826 0
117 526 827 0
117 -526 -827 0
-117 526 -827 0
-117 -526 827 0
270 349 377 0
270 -349 -377 0
-270 349 -377 0
-270 -349 377 0
536 574 -828 0
536 -574 828 0
-536 574 828 0
-536 -574 -828 0
829 830 -831 0
829 -830 831 0
-829 830 831 0
-829 -830 -831 0
50 63 561 0
50 -63 -561 0
-50 63 -561 0
-50 -63 561 0
805 832 -833 0
805 -832 833 0
-805 832 833 0
-805 -832 -833 0
120 472 608 0
120 -472 -608 0
-120 472 -608 0
-120 -472 608 0
755 834 -835 0
755 -834 835 0
-755 834 835 0
-755 -834 -835 0
114 773 836 0
114 -773 -836 0
-114 773 -836 0
-114 -773 836 0
515 634 -837 0
515 -634 837 0
-515 634 837 0
-515 -634 -837 0
431 443 -838 0
431 -443 838 0
-431 443 838 0
-431 -443 -838 0
21 184 658 0
21 -184 -658 0
-21 184 -658 0
-21 -184 658 0
542 610 -643 0
542 -610 643 0
-542 610 643 0
-542 -610 -643 0
839 840 841 0
839 -840 -841 0
-839 840 -841 0
-839 -840 841 0
75 693 -770 0
75 -693 770 0
-75 693 770 0
-75 -693 -770 0
470 682 -829 0
470 -682 829 0
-470 682 829 0
-470 -682 -829 0
362 769 804 0
362 -769 -804 0
-362 769 -804 0
-362 -769 804 0
699 735 842 0
699 -735 -842 0
-699 735 -842 0
-699 -735 842 0
767 843 844 0
767 -843 -844 0
-767 843 -844 0
-767 -843 844 0
14 799 -845 0
14 -799 845 0
-14 799 845 0
-14 -799 -845 0
87 453 506 0
87 -453 -506 0
-87 453 -506 0
-87 -453 506 0
685 846 847 0
685 -846 -847 0
-685 846 -847 0
-685 -846 847 0
430 578 -640 0
430 -578 640 0
-430 578 640 0
-430 -578 -640 0
517 826 848 0
517 -826 -848 0
-517 826 -848 0
-517 -826 848 0
520 752 -849 0
520 -752 849 0
-520 752 849 0
-520 -752 -849 0
683 761 850 0
683 -761 -850 0
-683 761 -850 0
-683 -761 850 0
173 621 845 0
173 -621 -845 0
-173 621 -845 0
-173 -621 845 0
170 772 851 0
170 -772 -851 0
-170 772 -851 0
-170 -772 851 0
716 852 -853 0
716 -852 853 0
-716 852 853 0
-716 -852 -853 0
402 783 854 0
402 -783 -854 0
-402 783 -854 0
-402 -783 854 0
343 851 -855 0
343 -851 855 0
-343 851 855 0
-343 -851 -855 0
687 764 -856 0
687 -764 856 0
-687 764 856 0
-687 -764 -856 0
493 522 -850 0
493 -522 850 0
-493 522 850 0
-493 -522 -850 0
566 624 -857 0
566 -624 857 0
-566 624 857 0
-566 -624 -857 0
12 762 858 0
12 -762 -858 0
-12 762 -858 0
-12 -762 858 0
758 856 -859 0
758 -856 859 0
-758 856 859 0
-758 -856 -859 0
353 457 -860 0
353 -457 860 0
-353 457 860 0
-353 -457 -860 0
140 455 -843 0
140 -455 843 0
-140 455 843 0
-140 -455 -843 0
355 697 -787 0
355 -697 787 0
-355 697 787 0
-355 -697 -787 0
372 637 -700 0
372 -637 700 0
-372 637 700 0
-372 -637 -700 0
72 447 -754 0
72 -447 754 0
-72 447 754 0
-72 -447 -754 0
252 474 519 0
252 -474 -519 0
-252 474 -519 0
-252 -474 519 0
721 861 862 0
721 -861 -862 0
-721 861 -862 0
-721 -861 862 0
103 678 863 0
103 -678 -863 0
-103 678 -863 0
-103 -678 863 0
543 594 602 0
543 -594 -602 0
-543 594 -602 0
-543 -594 602 0
93 821 -855 0
93 -821 855 0
-93 821 855 0
-93 -821 -855 0
125 267 481 0
125 -267 -481 0
-125 267 -481 0
-125 -267 481 0
307 459 864 0
307 -459 -864 0
-307 459 -864 0
-307 -459 864 0
728 822 865 0
728 -822 -865 0
-728 822 -865 0
-728 -822 865 0
284 487 809 0
284 -487 -809 0
-284 487 -809 0
-284 -487 809 0
27 544 -774 0
27 -544 774 0
-27 544 774 0
-27 -544 -774 0
790 839 -863 0
790 -839 863 0
-790 839 863 0
-790 -839 -863 0
265 330 866 0
265 -330 -866 0
-265 330 -866 0
-265 -330 866 0
867 868 869 0
867 -868 -869 0
-867 868 -869 0
-867 -868 869 0
179 419 -451 0
179 -419 451 0
-179 419 451 0
-179 -419 -451 0
112 145 -718 0
112 -145 718 0
-112 145 718 0
-112 -145 -718 0
216 690 -832 0
216 -690 832 0
-216 690 832 0
-216 -690 -832 0
573 814 870 0
573 -814 -870 0
-573 814 -870 0
-573 -814 870 0
837 842 871 0
837 -842 -871 0
-837 842 -871 0
-837 -842 871 0
153 403 -872 0
153 -403 872 0
-153 403 872 0
-153 -403 -872 0
123 737 873 0
123 -737 -873 0
-123 737 -873 0
-123 -737 873 0
282 810 -848 0
282 -810 848 0
-282 810 848 0
-282 -810 -848 0
159 861 -874 0
159 -861 874 0
-159 861 874 0
-159 -861 -874 0
329 537 -627 0
329 -537 627 0
-329 537 627 0
-329 -537 -627 0
426 852 875 0
426 -852 -875 0
-426 852 -875 0
-426 -852 875 0
320 704 715 0
320 -704 -715 0
-320 704 -715 0
-320 -704 715 0
44 513 815 0
44 -513 -815 0
-44 513 -815 0
-44 -513 815 0
321 846 -876 0
321 -846 876 0
-321 846 876 0
-321 -846 -876 0
344 713 -801 0
344 -713 801 0
-344 713 801 0
-344 -713 -801 0
401 702 877 0
401 -702 -877 0
-401 702 -877 0
-401 -702 877 0
15 205 -616 0
15 -205 616 0
-15 205 616 0
-15 -205 -616 0
668 675 -878 0
668 -675 878 0
-668 675 878 0
-668 -675 -878 0
247 598 879 0
247 -598 -879 0
-247 598 -879 0
-247 -598 879 0
876 880 -881 0
876 -880 881 0
-876 880 881 0
-876 -880 -881 0
220 705 -759 0
220 -705 759 0
-220 705 759 0
-220 -705 -759 0
132 484 -882 0
132 -484 882 0
-132 484 882 0
-132 -484 -882 0
155 827 867 0
155 -827 -867 0
-155 827 -867 0
-155 -827 867 0
345 488 -877 0
345 -488 877 0
-345 488 877 0
-345 -488 -877 0
603 756 883 0
603 -756 -883 0
-603 756 -883 0
-603 -756 883 0
788 791 884 0
788 -791 -884 0
-788 791 -884 0
-788 -791 884 0
527 606 -885 0
527 -606 885 0
-527 606 885 0
-527 -606 -885 0
250 412 -859 0
250 -412 859 0
-250 412 859 0
-250 -412 -859 0
333 816 886 0
333 -816 -886 0
-333 816 -886 0
-333 -816 886 0
686 780 -875 0
686 -780 875 0
-686 780 875 0
-686 -780 -875 0
547 663 818 0
547 -663 -818 0
-547 663 -818 0
-547 -663 818 0
162 414 887 0
162 -414 -887 0
-162 414 -887 0
-162 -414 887 0
341 781 888 0
341 -781 -888 0
-341 781 -888 0
-341 -781 888 0
582 812 820 0
582 -812 -820 0
-582 812 -820 0
-582 -812 820 0
272 874 889 0
272 -874 -889 0
-272 874 -889 0
-272 -874 889 0
779 853 873 0
779 -853 -873 0
-779 853 -873 0
-779 -853 873 0
176 194 -708 0
176 -194 708 0
-176 194 708 0
-176 -194 -708 0
126 562 -579 0
126 -562 579 0
-126 562 579 0
-126 -562 -579 0
304 889 890 0
304 -889 -890 0
-304 889 -890 0
-304 -889 890 0
269 300 379 0
269 -300 -379 0
-269 300 -379 0
-269 -300 379 0
105 830 857 0
105 -830 -857 0
-105 830 -857 0
-105 -830 857 0
510 760 847 0
510 -760 -847 0
-510 760 -847 0
-510 -760 847 0
202 271 405 0
202 -271 -405 0
-202 271 -405 0
-202 -271 405 0
253 703 -880 0
253 -703 880 0
-253 703 880 0
-253 -703 -880 0
416 548 -891 0
416 -548 891 0
-416 548 891 0
-416 -548 -891 0
298 813 892 0
298 -813 -892 0
-298 813 -892 0
-298 -813 892 0
108 308 -346 0
108 -308 346 0
-108 308 346 0
-108 -308 -346 0
261 726 878 0
261 -726 -878 0
-261 726 -878 0
-261 -726 878 0
834 849 -879 0
834 -849 879 0
-834 849 879 0
-834 -849 -879 0
30 301 792 0
30 -301 -792 0
-30 301 -792 0
-30 -301 792 0
868 886 -892 0
868 -886 892 0
-868 886 892 0
-868 -886 -892 0
638 840 -893 0
638 -840 893 0
-638 840 893 0
-638 -840 -893 0
262 274 -800 0
262 -274 800 0
-262 274 800 0
-262 -274 -800 0
147 541 869 0
147 -541 -869 0
-147 541 -869 0
-147 -541 869 0
109 628 -679 0
109 -628 679 0
-109 628 679 0
-109 -628 -679 0
68 831 894 0
68 -831 -894 0
-68 831 -894 0
-68 -831 894 0
367 387 -684 0
367 -387 684 0
-367 387 684 0
-367 -387 -684 0
646 672 768 0
646 -672 -768 0
-646 672 -768 0
-646 -672 768 0
69 883 -895 0
69 -883 895 0
-69 883 895 0
-69 -883 -895 0
409 545 807 0
409 -545 -807 0
-409 545 -807 0
-409 -545 807 0
730 796 870 0
730 -796 -870 0
-730 796 -870 0
-730 -796 870 0
8 83 -432 0
8 -83 432 0
-8 83 432 0
-8 -83 -432 0
66 577 649 0
66 -577 -649 0
-66 577 -649 0
-66 -577 649 0
318 775 789 0
318 -775 -789 0
-318 775 -789 0
-318 -775 789 0
482 694 731 0
482 -694 -731 0
-482 694 -731 0
-482 -694 731 0
625 636 871 0
625 -636 -871 0
-625 636 -871 0
-625 -636 871 0
575 654 896 0
575 -654 -896 0
-575 654 -896 0
-575 -654 896 0
34 706 865 0
34 -706 -865 0
-34 706 -865 0
-34 -706 865 0
507 778 824 0
507 -778 -824 0
-507 778 -824 0
-507 -778 824 0
9 165 -897 0
9 -165 897 0
-9 165 897 0
-9 -165 -897 0
709 732 864 0
709 -732 -864 0
-709 732 -864 0
-709 -732 864 0
650 766 -854 0
650 -766 854 0
-650 766 854 0
-650 -766 -854 0
802 898 -899 0
802 -898 899 0
-802 898 899 0
-802 -898 -899 0
35 48 884 0
35 -48 -884 0
-35 48 -884 0
-35 -48 884 0
32 135 -688 0
32 -135 688 0
-32 135 688 0
-32 -135 -688 0
232 613 -882 0
232 -613 882 0
-232 613 882 0
-232 -613 -882 0
257 524 -895 0
257 -524 895 0
-257 524 895 0
-257 -524 -895 0
560 607 -838 0
560 -607 838 0
-560 607 838 0
-560 -607 -838 0
54 549 -862 0
54 -549 862 0
-54 549 862 0
-54 -549 -862 0
740 898 900 0
740 -898 -900 0
-740 898 -900 0
-740 -898 900 0
148 479 711 0
148 -479 -711 0
-148 479 -711 0
-148 -479 711 0
501 622 -786 0
501 -622 786 0
-501 622 786 0
-501 -622 -786 0
240 673 794 0
240 -673 -794 0
-240 673 -794 0
-240 -673 794 0
396 595 -828 0
396 -595 828 0
-396 595 828 0
-396 -595 -828 0
221 664 763 0
221 -664 -763 0
-221 664 -763 0
-221 -664 763 0
380 835 858 0
380 -835 -858 0
-380 835 -858 0
-380 -835 858 0
669 803 899 0
669 -803 -899 0
-669 803 -899 0
-669 -803 899 0
599 674 -719 0
599 -674 719 0
-599 674 719 0
-599 -674 -719 0
81 825 893 0
81 -825 -893 0
-81 825 -893 0
-81 -825 893 0
24 467 785 0
24 -467 -785 0
-24 467 -785 0
-24 -467 785 0
33 36 797 0
33 -36 -797 0
-33 36 -797 0
-33 -36 797 0
556 667 -896 0
556 -667 896 0
-556 667 896 0
-556 -667 -896 0
45 278 836 0
45 -278 -836 0
-45 278 -836 0
-45 -278 836 0
285 798 -872 0
285 -798 872 0
-285 798 872 0
-285 -798 -872 0
356 722 -866 0
356 -722 866 0
-356 722 866 0
-356 -722 -866 0
529 605 -680 0
529 -605 680 0
-529 605 680 0
-529 -605 -680 0
429 710 746 0
429 -710 -746 0
-429 710 -746 0
-429 -710 746 0
782 823 897 0
782 -823 -897 0
-782 823 -897 0
-782 -823 897 0
156 795 -888 0
156 -795 888 0
-156 795 888 0
-156 -795 -888 0
617 739 745 0
617 -739 -745 0
-617 739 -745 0
-617 -739 745 0
51 90 776 0
51 -90 -776 0
-51 90 -776 0
-51 -90 776 0
294 747 -844 0
294 -747 844 0
-294 747 844 0
-294 -747 -844 0
254 433 -833 0
254 -433 833 0
-254 433 833 0
-254 -433 -833 0
388 475 -891 0
388 -475 891 0
-388 475 891 0
-388 -475 -891 0
84 444 -518 0
84 -444 518 0
-84 444 518 0
-84 -444 -518 0
142 508 -576 0
142 -508 576 0
-142 508 576 0
-142 -508 -576 0
373 723 -890 0
373 -723 890 0
-373 723 890 0
-373 -723 -890 0
448 793 860 0
448 -793 -860 0
-448 793 -860 0
-448 -793 860 0
811 887 900 0
811 -887 -900 0
-811 887 -900 0
-811 -887 900 0
468 489 -590 0
468 -489 590 0
-468 489 590 0
-468 -489 -590 0
42 197 -237 0
42 -197 237 0
-42 197 237 0
-42 -197 -237 0
391 676 724 0
391 -676 -724 0
-391 676 -724 0
-391 -676 724 0
190 331 881 0
190 -331 -881 0
-190 331 -881 0
-190 -331 881 0
817 841 -894 0
817 -841 894 0
-817 841 894 0
-817 -841 -894 0
106 707 808 0
106 -707 -808 0
-106 707 -808 0
-106 -707 808 0
241 620 -729 0
241 -620 729 0
-241 620 729 0
-241 -620 -729 0
516 806 -885 0
516 -806 885 0
-516 806 885 0
-516 -806 -885 0
370 588 -592 0
370 -588 592 0
-370 588 592 0
-370 -588 -592 0
