c description: Random 3-CNF over 500 variables and 2129 clauses
c generator: CNFgen (0.9.6)
c copyright: (C) 2012-2026 Massimo Lauria <massimo.lauria@uniroma1.it>
c url: https://massimolauria.net/cnfgen
c command line: cnfgen randkcnf 3 500 2129
c
p cnf 500 2129
115 -306 307 0
103 -353 466 0
-131 -402 491 0
334 468 -490 0
17 -146 316 0
111 231 309 0
218 253 489 0
60 209 -476 0
-55 -213 -298 0
345 386 -390 0
-345 -346 480 0
-208 -480 -486 0
-58 72 462 0
-144 327 -447 0
7 -212 -466 0
-13 207 -367 0
75 -208 -214 0
145 -404 -456 0
279 -294 328 0
327 342 409 0
-41 -235 -396 0
48 163 305 0
167 284 -465 0
-365 388 390 0
-33 248 -479 0
51 -211 -252 0
363 387 431 0
-73 177 364 0
288 -363 467 0
153 293 473 0
131 -230 281 0
-28 307 -411 0
-107 122 -139 0
-186 -220 235 0
-7 444 -447 0
-307 337 -404 0
-241 298 -390 0
-10 302 305 0
74 171 -262 0
201 466 -492 0
-208 220 -378 0
10 444 -446 0
105 -228 453 0
-20 -354 361 0
-47 -117 422 0
-8 120 275 0
32 122 459 0
176 -212 -429 0
-42 90 -266 0
243 -249 297 0
-290 407 -487 0
21 -97 -250 0
136 -391 -490 0
191 -318 -416 0
-133 191 -301 0
127 -128 190 0
92 -261 -436 0
-244 -268 457 0
-119 -132 -444 0
108 340 406 0
12 -121 -491 0
223 -433 472 0
-73 123 -330 0
25 -75 -381 0
-95 -400 407 0
-67 133 -453 0
184 -255 -312 0
-43 -370 -416 0
121 -347 -364 0
-31 279 -448 0
132 -249 -358 0
-235 345 416 0
-147 253 -274 0
97 -259 -364 0
120 175 435 0
16 40 -187 0
7 -195 397 0
-163 169 -186 0
114 -145 393 0
12 167 185 0
-85 412 457 0
-269 366 394 0
-64 -263 -369 0
-43 138 -233 0
47 375 409 0
-27 91 400 0
72 -203 208 0
-4 245 -360 0
245 332 -349 0
77 -425 437 0
114 220 -340 0
-37 -108 -191 0
145 -178 -433 0
236 262 -429 0
323 331 -360 0
-100 422 -436 0
-21 204 243 0
-60 -94 -95 0
142 268 302 0
136 -307 -337 0
130 167 355 0
-31 111 366 0
-54 -356 421 0
34 -274 323 0
33 -243 -380 0
-55 -126 -389 0
-45 48 495 0
-15 -18 -443 0
-96 -390 -445 0
-155 -396 477 0
43 -85 -121 0
51 -403 435 0
-105 209 -350 0
6 -104 275 0
-8 -391 500 0
130 -197 -220 0
-76 413 -444 0
30 -483 -490 0
204 -317 321 0
7 74 -218 0
-50 -106 -137 0
27 -296 459 0
43 176 -346 0
73 108 -266 0
121 182 302 0
23 247 -273 0
86 -142 352 0
258 340 -420 0
-66 -263 268 0
-99 102 -189 0
64 -98 354 0
125 196 -397 0
-112 180 -312 0
120 -266 455 0
56 189 -313 0
236 -389 492 0
123 278 -360 0
292 -312 339 0
107 193 -393 0
-8 -225 -233 0
82 416 -458 0
-103 159 -308 0
-45 328 -351 0
-41 81 256 0
135 161 417 0
134 135 420 0
-20 75 130 0
-126 -169 -366 0
348 -440 -456 0
86 -420 459 0
-73 111 478 0
-330 -373 395 0
37 131 469 0
31 -46 -408 0
-190 -209 425 0
-94 -114 277 0
148 -218 315 0
54 94 -123 0
371 457 478 0
310 418 -496 0
-184 -294 344 0
-166 -427 437 0
-278 -374 -428 0
-71 -313 -394 0
-135 -188 296 0
233 -300 331 0
-136 -327 -403 0
9 -307 -426 0
-129 -212 234 0
169 335 -413 0
-168 236 -274 0
-179 -384 -437 0
-130 -161 214 0
-278 -286 -348 0
-16 70 -185 0
88 -387 -435 0
66 74 -432 0
122 216 -227 0
358 459 467 0
181 228 268 0
128 -427 475 0
100 -175 -189 0
-167 -241 -301 0
-65 231 -294 0
-22 -138 -314 0
-1 96 491 0
-13 -20 -123 0
165 209 489 0
-2 -97 -161 0
99 187 264 0
-303 -305 327 0
-378 415 -463 0
-66 280 -282 0
5 -185 311 0
-115 190 218 0
67 -93 97 0
-282 419 -430 0
163 421 -449 0
28 75 129 0
195 268 364 0
-85 -260 293 0
170 -279 286 0
-281 289 305 0
-131 -175 -332 0
-228 -249 -467 0
-46 -138 376 0
-80 -371 -496 0
133 311 393 0
-49 -463 472 0
-155 -234 -290 0
-76 91 230 0
-195 -422 -424 0
24 -135 -237 0
-104 250 -290 0
-5 9 412 0
94 -132 -349 0
-41 -245 -364 0
141 314 428 0
176 -481 496 0
-36 -360 -494 0
71 -76 -413 0
-86 236 -334 0
52 -279 -390 0
37 -184 456 0
-169 -243 425 0
-267 -322 -467 0
-302 402 477 0
-74 77 314 0
-8 262 414 0
209 -241 484 0
247 262 -469 0
41 53 313 0
-31 163 414 0
-236 -392 434 0
-282 -358 430 0
113 -239 -282 0
-89 114 -357 0
-193 -247 392 0
-27 49 -474 0
-24 27 -319 0
-220 -367 -497 0
198 -253 270 0
-242 -378 379 0
-88 -413 486 0
18 -321 -398 0
-234 262 388 0
-2 95 432 0
107 226 -292 0
-126 216 418 0
2 -174 -370 0
208 -291 -441 0
114 -276 445 0
30 376 461 0
-2 -99 -306 0
259 387 473 0
120 -137 -382 0
17 239 478 0
-215 -293 -389 0
-68 76 344 0
-40 170 -368 0
119 132 393 0
17 -41 -159 0
108 -187 -204 0
-32 234 -333 0
-176 -327 -391 0
-41 -59 457 0
2 236 288 0
129 -236 476 0
190 -235 498 0
42 -145 392 0
120 244 -266 0
-68 297 483 0
120 183 -233 0
-218 253 354 0
170 223 474 0
155 -327 446 0
-126 -232 453 0
-111 -153 -465 0
129 -212 -366 0
17 209 492 0
31 132 -138 0
-24 -348 -380 0
-53 -404 -498 0
-105 168 415 0
303 -443 -495 0
314 403 429 0
165 -224 -283 0
123 215 281 0
30 -241 -247 0
-121 139 -331 0
-114 -312 -349 0
24 254 -369 0
-49 -251 -349 0
-159 -181 -342 0
-43 -53 -160 0
-58 -182 -433 0
15 75 -181 0
-93 -128 176 0
-86 327 -343 0
135 260 307 0
-107 216 391 0
-184 -270 386 0
-126 -227 -244 0
-132 371 433 0
197 218 -443 0
-163 -338 500 0
-166 -294 446 0
-31 227 405 0
-381 -433 -456 0
8 223 -430 0
57 66 -217 0
-36 -291 -431 0
244 -314 439 0
196 -353 -425 0
51 -211 311 0
64 131 422 0
157 230 379 0
-1 -105 324 0
-8 -9 137 0
-298 -374 421 0
62 -220 365 0
-404 -458 -482 0
8 317 -488 0
-291 -403 423 0
-6 -31 -39 0
-265 -372 -418 0
-202 -364 440 0
-272 -345 478 0
-163 -166 -270 0
41 149 231 0
-30 -57 267 0
172 -336 -466 0
127 -241 410 0
22 -46 492 0
-326 459 -486 0
62 -81 -291 0
373 458 -492 0
170 318 -500 0
145 -224 448 0
309 -415 470 0
152 -315 -467 0
-1 42 -213 0
102 234 439 0
-78 -415 464 0
-222 -355 -496 0
190 236 373 0
97 157 -264 0
200 -295 -360 0
-69 312 354 0
-206 -242 285 0
-56 -305 -485 0
158 208 259 0
-63 201 -241 0
-150 151 -202 0
15 -25 -417 0
32 -382 384 0
61 306 -327 0
-150 -203 253 0
-8 -143 288 0
-75 162 198 0
51 -177 275 0
48 51 -415 0
-309 324 406 0
109 246 -460 0
-18 -63 371 0
-170 413 -440 0
60 -200 -415 0
92 -249 426 0
-57 255 -424 0
129 149 -295 0
102 148 189 0
36 153 -168 0
-90 -264 -390 0
87 -120 -451 0
-9 -122 427 0
31 50 436 0
179 187 -230 0
177 350 -358 0
-215 274 -374 0
138 172 -318 0
318 410 -431 0
274 391 497 0
-75 269 489 0
48 -187 -325 0
-48 125 426 0
57 290 423 0
-126 224 284 0
92 -138 383 0
-45 314 494 0
108 430 467 0
248 369 -383 0
354 -442 450 0
81 392 426 0
136 138 -295 0
42 277 282 0
93 280 436 0
256 304 353 0
-147 -204 -374 0
12 -56 -221 0
113 -129 261 0
-91 176 -321 0
62 69 118 0
101 162 410 0
325 375 387 0
-14 403 483 0
101 204 382 0
-14 -318 -439 0
223 235 -457 0
26 -281 -437 0
119 120 -374 0
109 189 222 0
172 -396 -455 0
-163 209 -314 0
-12 -360 -480 0
7 -317 342 0
-118 178 311 0
-104 263 464 0
35 118 343 0
-218 -293 394 0
-190 390 456 0
169 -242 -490 0
-60 -437 -489 0
219 244 -422 0
-85 -434 463 0
159 297 313 0
-29 -45 391 0
-106 -198 283 0
-327 341 343 0
13 -344 -472 0
-98 341 -433 0
46 93 -367 0
-185 246 468 0
53 -149 -383 0
29 219 -411 0
-72 -273 -412 0
-5 207 -459 0
-32 112 420 0
38 204 451 0
-39 -124 -313 0
89 190 -323 0
204 -379 -424 0
-105 -403 -433 0
212 -327 494 0
-147 406 -436 0
-63 -102 217 0
-51 -337 -444 0
-162 -403 461 0
-28 253 -407 0
-210 225 -492 0
47 -82 211 0
-142 -219 287 0
237 309 -347 0
-89 249 -450 0
-59 393 402 0
214 230 237 0
-197 248 -394 0
64 -159 223 0
-269 319 460 0
-185 328 337 0
-184 203 287 0
239 -445 451 0
1 46 47 0
305 458 -476 0
151 -165 -208 0
-129 -258 374 0
-150 -416 -484 0
4 -245 339 0
-129 154 301 0
-153 218 305 0
97 -349 -498 0
-139 275 347 0
-52 395 420 0
-72 -112 234 0
-202 -273 387 0
-237 -360 445 0
88 103 333 0
-309 -352 -407 0
-43 -58 304 0
50 -279 -425 0
140 -307 -400 0
-217 282 301 0
137 -254 -260 0
108 429 -467 0
-83 216 -348 0
46 -165 253 0
38 335 -469 0
-20 -353 493 0
-93 -96 -300 0
219 355 -431 0
8 110 -138 0
-54 134 285 0
2 124 320 0
71 -111 -454 0
-13 88 200 0
-33 336 -398 0
16 -286 -351 0
38 -106 193 0
201 -277 344 0
-95 248 -262 0
-101 -402 496 0
-165 176 -366 0
-197 -341 420 0
-10 -21 401 0
-52 -85 -310 0
-159 399 423 0
-162 -366 -455 0
-189 -256 -272 0
124 -342 443 0
14 17 -46 0
77 295 352 0
233 274 -357 0
-68 149 -301 0
86 204 428 0
-18 -318 -330 0
-126 235 -236 0
-76 112 372 0
-144 -214 -244 0
150 -207 -219 0
365 -423 -484 0
121 164 -446 0
47 195 -373 0
-65 294 -428 0
-96 -220 -313 0
-74 206 -308 0
-186 215 -309 0
51 -84 -134 0
-183 308 -480 0
-67 141 -243 0
-82 -212 -340 0
115 -120 140 0
158 -203 -334 0
-238 403 -487 0
-216 -288 486 0
-117 -243 345 0
57 230 -300 0
-177 294 -358 0
-143 -266 291 0
134 473 -477 0
251 -315 446 0
-100 -129 -166 0
129 154 393 0
-28 -103 399 0
356 394 410 0
-250 -289 -315 0
-293 459 -470 0
18 81 235 0
48 263 308 0
132 -163 421 0
-11 -207 307 0
-14 -324 417 0
229 272 -289 0
166 193 396 0
118 232 -381 0
256 -262 -394 0
-24 -437 -486 0
57 158 249 0
73 -114 325 0
7 -12 -277 0
77 -445 486 0
71 -351 -358 0
234 387 487 0
28 -80 -130 0
-166 291 429 0
87 203 249 0
-54 322 348 0
130 -212 293 0
-28 -43 -236 0
-16 184 287 0
-87 -164 300 0
350 -358 478 0
95 -112 443 0
-93 -190 -389 0
193 234 -440 0
233 -354 486 0
43 346 418 0
141 -268 372 0
157 276 480 0
-176 -322 404 0
177 -219 385 0
111 261 464 0
209 339 -343 0
284 -336 357 0
-67 -227 469 0
217 -299 480 0
12 229 -500 0
101 -226 -229 0
126 356 -382 0
66 274 -348 0
-145 324 -442 0
300 -432 -490 0
214 318 -339 0
17 90 -291 0
-215 236 345 0
82 366 380 0
93 -214 -285 0
-147 237 -313 0
-232 -234 443 0
127 -336 -491 0
-106 -168 -430 0
-226 -268 371 0
-133 -195 344 0
-113 -132 209 0
14 117 -129 0
110 215 -285 0
-65 -302 303 0
-42 69 -473 0
-205 -254 499 0
-51 175 353 0
-137 207 308 0
89 284 322 0
-136 -224 242 0
-163 324 -362 0
-103 -370 -453 0
-125 -160 -424 0
23 37 232 0
-19 126 -250 0
-75 255 481 0
-27 78 379 0
-68 -157 -369 0
67 167 198 0
-3 162 -377 0
-33 80 -279 0
100 -396 -464 0
21 -45 86 0
134 -247 -249 0
-19 -318 -446 0
-27 -369 -438 0
-300 -406 -409 0
151 361 -492 0
146 -316 -446 0
310 410 -491 0
-100 223 396 0
126 385 -479 0
-87 339 -471 0
39 -361 -404 0
-125 133 252 0
101 -316 476 0
249 368 473 0
11 60 -343 0
-42 172 -475 0
-136 -297 408 0
57 356 -358 0
188 264 -324 0
-254 -279 -444 0
204 485 490 0
-89 -214 -399 0
65 238 -343 0
89 319 368 0
-4 299 490 0
-10 -77 -302 0
-252 360 -422 0
-36 -107 326 0
-71 -166 489 0
-308 464 -484 0
139 380 465 0
209 457 460 0
191 273 387 0
8 -244 395 0
36 322 394 0
46 -205 403 0
65 -194 208 0
-52 -393 -431 0
-156 269 333 0
78 -116 -295 0
-152 -186 283 0
226 282 325 0
46 175 -470 0
7 -312 493 0
168 265 -319 0
-117 -355 416 0
-145 281 419 0
-152 341 -380 0
-93 443 -488 0
129 165 -370 0
7 471 -483 0
-13 -236 -257 0
-141 147 -194 0
4 -82 296 0
-243 -438 454 0
-9 327 485 0
-4 5 33 0
383 388 450 0
-45 116 -227 0
-4 -116 -405 0
-256 -459 -477 0
281 323 379 0
-202 215 -290 0
-71 125 130 0
109 -255 -406 0
-57 -174 426 0
308 355 -492 0
-358 -411 471 0
71 161 -240 0
240 342 386 0
155 -238 -486 0
-14 127 483 0
-118 -179 -184 0
362 401 -456 0
151 158 283 0
259 -435 -474 0
-17 -172 -182 0
-43 236 252 0
-42 231 357 0
-47 63 -167 0
-193 -246 313 0
94 -330 -459 0
-104 -141 295 0
-41 -225 423 0
325 -371 483 0
362 365 -367 0
154 334 444 0
-41 -271 -294 0
-9 266 310 0
53 -117 -326 0
98 -282 298 0
140 -350 399 0
-151 -210 -260 0
290 311 366 0
268 -270 -426 0
-72 311 -417 0
-213 -276 -310 0
222 320 -386 0
-64 -162 -337 0
26 -116 -456 0
-113 455 497 0
48 -108 -176 0
81 246 452 0
-149 -216 -328 0
206 -273 -460 0
121 -124 282 0
-102 152 -241 0
91 171 226 0
66 -130 -273 0
-267 -281 415 0
7 -240 491 0
-101 112 -451 0
-332 437 494 0
-15 -85 377 0
12 -229 486 0
-153 -215 -473 0
74 -117 279 0
-6 -14 224 0
91 226 283 0
-171 -199 213 0
-164 278 422 0
110 117 175 0
208 -268 440 0
-187 292 332 0
-52 -201 -443 0
33 -424 -476 0
14 -157 341 0
24 271 -344 0
56 87 490 0
-14 -388 431 0
180 184 326 0
100 -169 -418 0
-143 -148 313 0
229 -325 -337 0
-144 281 -419 0
201 -419 474 0
-79 -214 226 0
94 176 398 0
-60 178 193 0
-235 256 346 0
248 -269 433 0
-79 190 290 0
208 467 -489 0
-97 -333 -442 0
-57 -124 -253 0
-109 -394 -417 0
233 -362 -452 0
-146 324 415 0
175 211 239 0
216 -438 450 0
361 424 -489 0
264 -459 471 0
146 -226 -362 0
-90 249 -254 0
-90 108 471 0
-249 -480 -496 0
-112 212 -361 0
-88 310 -422 0
136 -350 403 0
-270 -389 498 0
89 102 121 0
-64 -154 202 0
-141 -230 -417 0
135 288 450 0
53 -100 120 0
-78 -205 -354 0
33 64 345 0
255 323 386 0
151 265 -451 0
-187 -318 -361 0
422 -443 492 0
-67 -107 332 0
-5 414 458 0
204 284 -394 0
-16 154 336 0
23 -33 -435 0
-74 159 382 0
135 306 -499 0
66 -123 435 0
-42 -347 -373 0
-227 -283 433 0
-364 -411 481 0
-23 235 491 0
-225 295 -452 0
179 -208 307 0
101 -137 247 0
-137 -308 351 0
8 206 457 0
15 -200 -366 0
-160 -252 428 0
-92 -219 358 0
-298 -331 -479 0
46 -141 451 0
319 -416 -478 0
64 -318 -325 0
-221 253 286 0
62 -109 393 0
65 -280 -445 0
-190 -375 -390 0
18 229 319 0
-188 -303 -422 0
23 -324 447 0
295 311 481 0
249 304 486 0
123 358 401 0
47 -182 -225 0
-120 -287 -299 0
-105 392 -459 0
-11 47 372 0
1 278 -336 0
19 88 162 0
-81 144 330 0
-116 -140 343 0
-220 265 -286 0
147 -175 466 0
-212 275 -285 0
243 -363 -424 0
-9 -282 -436 0
-85 121 -373 0
-141 196 -402 0
109 -170 317 0
59 -221 419 0
-136 -151 -215 0
-160 415 -499 0
61 -204 306 0
112 426 -494 0
151 294 370 0
-200 -284 -331 0
-186 -225 268 0
15 -110 -146 0
-50 335 -346 0
95 170 418 0
-242 -449 482 0
323 -462 -478 0
-25 164 -335 0
-15 -310 -452 0
20 155 -215 0
-26 333 497 0
131 261 -469 0
-36 270 333 0
26 -463 500 0
-16 81 264 0
-28 -173 -458 0
-224 -405 -435 0
-103 -222 -439 0
-130 -264 -481 0
-122 -221 -334 0
-151 222 -347 0
94 323 -442 0
-37 270 406 0
327 402 -429 0
67 -161 238 0
-191 193 -332 0
2 253 -425 0
134 -221 -396 0
-27 -120 -217 0
-114 -152 -357 0
-92 172 -292 0
-28 57 195 0
125 144 377 0
205 248 -360 0
11 260 284 0
-131 382 413 0
91 345 -361 0
-248 -408 -423 0
33 117 -121 0
-135 355 -410 0
-23 482 -491 0
25 135 -233 0
387 -416 461 0
-92 133 -231 0
77 -105 -250 0
-202 -247 -365 0
115 -328 -379 0
187 -294 -373 0
77 141 -394 0
-31 -295 438 0
-129 326 -331 0
26 -362 -384 0
-72 -252 -372 0
14 228 -312 0
85 421 -436 0
73 115 -123 0
-59 -133 221 0
-128 -426 478 0
-38 245 420 0
18 215 345 0
113 -221 -305 0
93 -383 430 0
67 92 365 0
-65 -123 -166 0
182 -376 396 0
-223 431 -438 0
-22 -149 359 0
-36 264 -299 0
-406 428 470 0
125 129 230 0
52 -245 -393 0
-86 -240 -431 0
170 -279 483 0
201 244 -391 0
-211 -290 -337 0
-237 313 456 0
74 140 155 0
-234 278 -388 0
-47 159 -446 0
51 77 397 0
258 -343 455 0
-22 -351 -407 0
328 372 -394 0
-20 185 418 0
-132 -166 205 0
236 291 407 0
43 144 278 0
44 216 472 0
222 -266 -450 0
-31 -96 129 0
-119 183 326 0
59 -303 -320 0
81 -164 -169 0
-124 -131 -438 0
-73 -354 -394 0
331 -375 -474 0
-125 -140 -362 0
122 147 277 0
-68 71 -282 0
-181 293 476 0
179 226 -448 0
290 364 -373 0
24 -84 432 0
-40 -184 269 0
-89 406 -472 0
-321 486 494 0
-155 260 459 0
-46 -75 335 0
64 -72 459 0
-53 -250 417 0
25 -33 -498 0
3 29 333 0
65 -125 -464 0
-2 213 -293 0
256 -394 -496 0
69 171 -264 0
-51 -425 469 0
-298 -307 381 0
9 191 -341 0
-35 -262 458 0
53 -163 -202 0
41 -380 -495 0
159 -370 -424 0
-312 -420 -477 0
28 102 353 0
-95 -230 -476 0
56 -237 421 0
-351 386 -419 0
-224 239 -433 0
-346 394 -486 0
-200 -215 -349 0
167 205 418 0
274 -371 403 0
85 94 469 0
188 -361 377 0
454 469 -488 0
-24 231 296 0
-4 -46 89 0
45 92 251 0
-338 -360 488 0
-290 323 -493 0
76 136 -174 0
-94 -214 -229 0
-269 -356 460 0
-170 475 489 0
76 95 340 0
106 162 250 0
21 -168 -460 0
-156 -297 -455 0
-101 -374 -480 0
4 -395 -399 0
-99 183 428 0
142 242 486 0
26 -156 -308 0
41 172 -443 0
-90 152 212 0
-14 50 -431 0
-330 -336 -482 0
-182 421 479 0
-318 -427 494 0
190 -208 224 0
-16 101 -477 0
-181 -272 381 0
93 -337 -381 0
192 -473 495 0
91 169 391 0
-181 -221 -433 0
76 191 254 0
-112 390 404 0
-323 -348 390 0
22 242 -374 0
235 257 469 0
-11 403 -461 0
157 -344 489 0
210 -343 -389 0
115 -405 417 0
26 363 376 0
211 219 340 0
-22 -154 -430 0
122 364 428 0
-65 181 288 0
-42 -305 -338 0
-63 175 -367 0
70 -158 187 0
224 286 467 0
-40 -54 63 0
61 182 -442 0
-86 386 396 0
-60 298 -473 0
135 -176 -329 0
-70 -92 243 0
89 257 483 0
-191 195 446 0
-83 -152 425 0
95 -152 -208 0
45 -56 167 0
120 159 466 0
-15 -27 301 0
-31 -97 -244 0
32 -286 356 0
-86 -133 -418 0
-36 93 -273 0
-37 422 -489 0
-125 159 464 0
-43 208 -366 0
-16 401 492 0
381 429 431 0
45 156 178 0
-19 159 493 0
268 -357 413 0
309 -358 432 0
-390 -393 429 0
108 -169 306 0
22 213 245 0
188 226 476 0
170 -274 419 0
-27 -382 -488 0
-177 286 303 0
-137 -411 495 0
-82 -179 -264 0
-30 245 -449 0
-263 -409 -445 0
11 -59 307 0
154 -373 -471 0
-68 185 461 0
-122 137 -288 0
-191 -295 -347 0
-5 -42 -204 0
-3 -193 253 0
-213 418 469 0
-231 -464 -491 0
246 -400 -472 0
187 215 299 0
-38 -112 -114 0
-88 -153 -339 0
-41 -108 -161 0
-5 -104 187 0
257 -287 361 0
364 -400 -479 0
-104 -215 346 0
407 -453 -478 0
-210 446 494 0
131 -402 -420 0
177 -211 250 0
-50 220 235 0
426 445 -451 0
49 -189 -408 0
-28 -263 352 0
208 -339 368 0
-79 199 454 0
-43 88 394 0
161 -331 -411 0
-344 442 468 0
138 -399 -404 0
-19 -267 -343 0
-208 251 -444 0
-225 -297 422 0
-63 138 421 0
90 -210 -485 0
-47 225 429 0
7 117 317 0
320 412 485 0
-98 253 323 0
218 -302 435 0
-369 -382 409 0
-13 48 -186 0
-77 308 -394 0
-121 211 -417 0
-83 -315 374 0
-53 -289 468 0
-354 381 -493 0
-45 -50 -458 0
-38 81 -406 0
-65 -126 -426 0
121 127 -142 0
-60 -111 273 0
1 -18 59 0
77 -236 -372 0
30 -140 -305 0
-195 214 -221 0
234 253 446 0
27 263 -390 0
23 404 419 0
-335 399 476 0
-294 325 -344 0
-185 353 393 0
-250 265 385 0
160 406 -428 0
-138 249 -334 0
236 386 -409 0
-130 -327 -474 0
82 -204 329 0
-37 -39 286 0
122 -230 335 0
-17 -119 475 0
283 -298 -472 0
-13 -68 -461 0
82 -144 370 0
233 -376 -466 0
431 450 -451 0
-18 131 176 0
35 -228 -380 0
-232 255 -358 0
150 -209 454 0
-155 -467 -500 0
39 -220 -394 0
94 -286 470 0
-8 246 269 0
-129 -229 324 0
75 -215 254 0
156 -389 -475 0
150 314 432 0
-184 -247 -379 0
-110 -414 450 0
-264 -273 -431 0
4 -55 -166 0
46 -94 -288 0
89 -212 -466 0
49 -420 -424 0
78 -411 -477 0
7 43 183 0
19 339 417 0
-148 -183 385 0
-268 488 -494 0
-13 330 495 0
189 290 -385 0
114 260 261 0
-106 273 -329 0
-32 290 -384 0
206 -279 446 0
-121 -337 497 0
-46 68 178 0
-83 -176 -203 0
54 176 -410 0
-123 190 -358 0
-102 -251 -309 0
364 372 492 0
-26 111 216 0
-160 -170 -367 0
-175 -205 305 0
208 -231 -386 0
160 209 -302 0
71 -72 -81 0
-178 309 426 0
-124 203 499 0
35 44 -245 0
225 265 -316 0
15 -96 330 0
-244 -302 -379 0
203 205 -357 0
-1 30 -475 0
-98 103 -319 0
-69 -156 -436 0
-245 -360 467 0
-224 444 -453 0
196 258 307 0
44 177 -333 0
56 -288 -436 0
-33 175 491 0
-79 428 480 0
-1 309 -337 0
106 478 -499 0
-127 -178 -443 0
-348 438 452 0
23 143 -329 0
179 -201 -500 0
-98 -212 247 0
306 -379 454 0
-92 248 -373 0
-35 -38 -408 0
-117 355 380 0
98 446 -492 0
99 371 -388 0
-66 209 -275 0
-125 231 372 0
-23 -365 -450 0
-181 359 -370 0
-280 -333 416 0
7 -126 -344 0
-73 263 -460 0
85 -160 281 0
173 282 363 0
-44 -132 182 0
-202 395 471 0
56 -95 -379 0
204 389 -406 0
80 -198 330 0
64 141 -456 0
-207 319 487 0
-47 425 -464 0
36 45 -287 0
-334 -353 -388 0
130 -318 353 0
-237 360 -367 0
36 -172 -201 0
12 39 -192 0
-113 288 -408 0
-282 293 -458 0
145 -255 337 0
-21 75 284 0
67 -93 368 0
176 185 236 0
71 279 399 0
343 459 469 0
146 -172 336 0
-42 -330 449 0
271 414 -460 0
160 -247 340 0
-9 368 433 0
145 -224 445 0
31 -64 -462 0
34 -316 479 0
84 -169 181 0
-49 98 -389 0
-186 -249 413 0
209 288 -289 0
-138 -359 396 0
-16 107 412 0
-241 253 441 0
36 280 401 0
-294 364 388 0
-146 -184 -219 0
-11 -341 -370 0
-248 340 -415 0
118 -356 387 0
17 103 -418 0
87 -334 -439 0
-153 322 453 0
229 -232 301 0
6 83 -105 0
-9 -326 -367 0
2 -119 154 0
56 85 -112 0
22 -286 -318 0
91 -118 419 0
-171 -337 390 0
5 -8 -303 0
350 405 465 0
-62 74 159 0
-281 307 317 0
-30 -125 -319 0
-178 -281 351 0
-227 -410 419 0
178 -316 463 0
-41 131 -433 0
-86 -283 -438 0
201 459 478 0
122 -225 432 0
-178 -310 -463 0
-14 -105 218 0
127 204 454 0
14 -434 -495 0
-32 157 364 0
1 159 -161 0
53 356 -440 0
75 -164 -272 0
179 -248 321 0
2 -148 -258 0
-396 452 -487 0
-93 -198 294 0
-129 -133 -341 0
-356 -424 493 0
-253 -474 494 0
-76 80 -326 0
203 -359 450 0
135 -321 -497 0
2 19 321 0
-176 -412 -496 0
-102 -358 402 0
-197 216 243 0
-160 265 -275 0
-160 -402 -475 0
-27 -153 275 0
-12 260 -435 0
37 -177 388 0
261 442 445 0
-226 -342 -353 0
-240 393 396 0
-48 -94 495 0
-108 338 -427 0
-239 -365 494 0
-63 449 459 0
92 242 446 0
-45 81 279 0
197 -247 -300 0
89 178 365 0
321 486 -495 0
156 214 -465 0
-393 -444 448 0
327 -332 406 0
197 309 500 0
-333 399 478 0
-20 -112 293 0
13 228 -265 0
33 -411 470 0
9 -300 -329 0
161 221 414 0
221 -262 495 0
-136 -162 -488 0
-306 310 -384 0
-110 -277 328 0
124 171 399 0
152 345 -494 0
-72 -159 197 0
-94 208 -429 0
62 122 379 0
180 -324 -480 0
-8 -185 -198 0
184 249 -374 0
115 211 238 0
-118 -240 -433 0
116 249 -423 0
141 -203 378 0
3 -180 -365 0
47 430 -485 0
-74 -177 -197 0
-182 399 -475 0
-186 -254 -261 0
-188 294 308 0
24 198 201 0
-83 -287 380 0
-121 319 461 0
31 -375 422 0
49 185 256 0
77 -294 -460 0
-189 326 -465 0
-31 -316 482 0
-257 328 368 0
-189 -337 -495 0
281 -337 -474 0
-155 -237 -446 0
10 -162 441 0
-331 458 482 0
5 272 385 0
-239 340 358 0
282 285 383 0
-82 197 214 0
30 -99 -132 0
62 -175 -379 0
260 339 407 0
244 278 -449 0
-16 61 126 0
150 421 -429 0
82 365 -483 0
143 -258 -375 0
-251 -447 498 0
152 349 -466 0
-83 -355 372 0
-203 249 -292 0
-104 160 -489 0
253 328 -450 0
-140 291 341 0
-259 -409 -491 0
195 -242 -298 0
-112 462 -466 0
140 -288 -429 0
-77 -260 427 0
-88 191 -414 0
-81 -307 424 0
204 -237 -497 0
48 -125 -415 0
26 -128 -393 0
73 107 -227 0
120 284 463 0
370 -423 476 0
134 138 435 0
295 -374 -491 0
-301 417 -429 0
-142 209 249 0
132 -351 -485 0
-38 229 368 0
-293 -380 442 0
272 283 -428 0
-287 354 -435 0
-136 -427 464 0
29 310 -494 0
258 -283 -495 0
70 -147 345 0
3 35 -472 0
-16 -97 -442 0
7 29 218 0
263 359 448 0
-63 308 -312 0
30 -140 -201 0
-172 -254 -456 0
-122 385 -417 0
-85 299 -453 0
29 203 -355 0
-100 -384 -419 0
69 432 -450 0
-27 -392 -440 0
47 299 -341 0
-45 348 410 0
50 168 259 0
-186 -220 -291 0
-23 -301 -403 0
-13 200 -452 0
-313 -360 -485 0
140 -226 376 0
-26 326 405 0
31 224 279 0
256 314 319 0
276 -311 -327 0
20 229 -386 0
200 -223 -452 0
-38 -400 -471 0
96 225 -370 0
-336 -388 460 0
-235 367 378 0
-87 -135 401 0
142 -148 169 0
-342 396 -499 0
-85 92 -461 0
13 239 -255 0
-64 -212 461 0
42 137 -423 0
-18 111 -250 0
-84 -386 484 0
52 222 283 0
-266 -387 495 0
-310 365 487 0
127 -164 -382 0
-332 -458 -491 0
26 -260 -349 0
271 351 435 0
-62 444 -497 0
104 -120 414 0
105 -245 345 0
-62 -170 382 0
81 296 -479 0
169 177 402 0
123 -160 -439 0
-34 376 -487 0
-10 104 -146 0
80 -411 446 0
-70 -147 -212 0
-116 -165 -236 0
-220 355 -395 0
225 -294 -401 0
341 -357 -451 0
23 -181 372 0
-91 112 139 0
-75 121 -391 0
-60 -346 -353 0
-49 120 201 0
-21 74 -246 0
119 421 459 0
-87 207 -256 0
12 228 361 0
-86 258 381 0
-75 -114 135 0
59 205 -207 0
88 389 -399 0
-181 -191 -381 0
-5 -114 -430 0
18 -292 383 0
-82 -220 387 0
-199 200 210 0
-41 -45 245 0
13 116 -347 0
-228 453 499 0
-32 -160 -396 0
89 -255 341 0
4 400 403 0
-228 -252 -494 0
1 295 423 0
-298 301 -488 0
17 -107 -136 0
-55 140 189 0
112 150 -313 0
-140 290 -306 0
-164 -321 397 0
39 135 -418 0
99 131 -310 0
75 169 370 0
13 -132 -320 0
434 475 484 0
-60 213 422 0
-59 -110 -240 0
-135 -170 405 0
8 -206 -485 0
-41 106 -190 0
-9 378 -412 0
191 449 -486 0
-2 189 340 0
-141 186 -258 0
35 88 173 0
198 311 -410 0
377 -459 463 0
73 -263 -297 0
-34 426 -438 0
-233 315 -435 0
136 -197 -479 0
265 349 -375 0
66 -71 -150 0
-86 -329 -346 0
231 247 328 0
-172 -206 -431 0
-57 -323 -372 0
-30 257 -271 0
-274 -292 350 0
-49 299 -433 0
-106 123 447 0
-111 327 -338 0
-143 199 306 0
10 -81 358 0
232 -238 -250 0
80 -87 -295 0
-257 -387 466 0
41 99 159 0
89 210 258 0
59 110 233 0
213 266 280 0
78 -131 -421 0
-121 172 235 0
124 279 332 0
121 -214 -319 0
-113 -126 -194 0
9 224 413 0
-5 -135 -369 0
-172 -283 -471 0
80 114 -369 0
-391 455 -461 0
9 69 -421 0
-127 -185 447 0
243 -260 307 0
356 357 -496 0
68 200 418 0
-7 -12 240 0
-25 114 -401 0
-44 -140 -466 0
-225 366 -368 0
-33 -293 -414 0
58 -279 420 0
-10 139 185 0
37 -309 -456 0
140 -150 348 0
-175 -412 442 0
123 169 309 0
-108 423 434 0
-172 -204 -423 0
84 -330 -337 0
-23 197 253 0
317 354 -408 0
-212 -222 313 0
134 -169 -363 0
-56 196 432 0
-341 -453 491 0
-30 67 206 0
-133 363 -375 0
-13 364 454 0
15 -239 -427 0
-40 -133 -155 0
-134 217 418 0
-87 368 -369 0
-186 -190 281 0
-92 120 -121 0
-190 234 -246 0
-76 -314 -317 0
-153 257 -282 0
35 115 145 0
104 278 -440 0
-169 -272 -341 0
-408 -480 482 0
82 -317 451 0
-213 231 -422 0
-120 240 -425 0
-85 -128 248 0
-139 -154 -208 0
-1 214 418 0
-3 90 184 0
-284 305 330 0
-145 -455 484 0
17 99 233 0
248 372 486 0
-161 209 479 0
327 -346 412 0
239 -310 336 0
122 -146 -332 0
-328 366 489 0
-57 -82 125 0
80 419 485 0
-323 -441 -443 0
2 -185 352 0
177 -203 -480 0
-76 -193 -278 0
-156 276 -483 0
79 -196 -450 0
-245 -330 487 0
-11 -23 437 0
-156 -296 -411 0
-9 -97 395 0
269 -353 381 0
113 -124 -431 0
-25 -167 483 0
-118 184 -467 0
-246 -479 484 0
-259 301 -437 0
-107 292 327 0
-105 -251 277 0
49 -350 431 0
23 388 -483 0
137 242 456 0
20 -207 480 0
75 -147 -282 0
73 -381 420 0
-324 -385 481 0
31 -196 200 0
250 286 499 0
-48 -394 449 0
-264 362 -465 0
-278 -286 -454 0
-1 210 321 0
-340 -347 362 0
-102 -133 416 0
-291 386 400 0
-98 -121 -478 0
296 310 382 0
-107 -255 448 0
-172 215 -229 0
15 350 354 0
6 121 -223 0
293 349 484 0
8 109 416 0
-132 -220 -240 0
142 -465 491 0
136 -149 347 0
-74 -163 296 0
-35 273 301 0
-204 410 -416 0
134 213 299 0
69 -115 406 0
-95 -432 434 0
212 283 495 0
-195 461 472 0
65 69 267 0
229 314 338 0
-6 421 -483 0
311 -356 396 0
135 -385 -450 0
66 234 489 0
248 284 308 0
137 225 -248 0
196 -270 -331 0
54 -360 385 0
105 250 411 0
-20 -37 441 0
218 -345 402 0
11 -259 425 0
319 -453 -479 0
-124 -289 405 0
249 -331 -411 0
-2 -332 -440 0
-115 -236 -395 0
159 170 473 0
-267 458 -468 0
-18 116 358 0
82 -142 373 0
-191 -240 -415 0
141 -243 -427 0
-75 337 381 0
137 203 -308 0
-166 -290 -460 0
-284 457 -492 0
-82 -264 274 0
27 82 438 0
60 -262 444 0
33 187 292 0
-75 -139 231 0
47 -235 -237 0
149 -390 493 0
-2 -194 -222 0
222 -261 265 0
22 385 -456 0
49 231 -444 0
-6 217 480 0
-82 -391 481 0
182 -280 -373 0
237 309 320 0
-12 -127 -162 0
213 -237 303 0
-38 -329 -463 0
73 104 -486 0
290 394 482 0
-119 125 316 0
239 440 459 0
56 -127 297 0
236 379 422 0
-264 -486 488 0
63 93 354 0
-70 81 -376 0
70 -182 226 0
-159 285 437 0
150 326 466 0
-40 176 334 0
-210 218 -334 0
-130 -336 -394 0
247 -315 500 0
-269 327 -342 0
-56 278 411 0
-103 362 -425 0
179 309 -433 0
250 -278 330 0
166 -230 -391 0
-134 -145 -225 0
443 -485 -499 0
-48 113 196 0
-86 -93 498 0
61 222 230 0
54 -166 -245 0
-35 121 -336 0
8 -383 -454 0
-268 -397 410 0
-350 377 479 0
205 -329 -370 0
-32 38 238 0
276 430 -431 0
-74 -121 -132 0
-9 128 -170 0
16 232 260 0
-125 419 425 0
-50 -161 -206 0
-152 208 -302 0
85 355 497 0
148 322 465 0
158 -233 -417 0
238 -440 483 0
131 175 -380 0
-4 284 -485 0
73 -287 -345 0
294 460 492 0
196 256 -497 0
-172 -243 245 0
159 -368 470 0
115 160 -266 0
-289 310 -399 0
-78 101 -387 0
-269 -294 319 0
-154 168 -467 0
43 -60 486 0
107 440 -441 0
56 262 -368 0
-23 -192 224 0
122 383 -445 0
128 -247 468 0
168 -340 -411 0
15 88 -472 0
196 257 372 0
-7 239 396 0
111 353 -376 0
128 340 -420 0
205 306 -406 0
-85 200 -463 0
31 -106 283 0
-271 -306 -497 0
142 -437 -500 0
93 99 293 0
-149 -401 -421 0
-408 445 -498 0
-400 410 414 0
-55 184 -323 0
169 444 -476 0
-46 -209 473 0
66 67 -327 0
-100 -189 -228 0
-353 -362 459 0
-194 -275 465 0
-4 -428 -489 0
99 -139 -289 0
339 456 -481 0
197 -336 -470 0
245 343 495 0
-271 322 -472 0
-190 -428 -440 0
-15 449 -478 0
438 464 484 0
267 295 -361 0
342 -384 -477 0
283 417 464 0
13 316 -426 0
-140 291 324 0
188 193 -382 0
-162 -361 368 0
9 -158 232 0
-152 318 456 0
-300 445 463 0
-216 247 -399 0
231 -328 500 0
130 -214 458 0
-168 342 -492 0
114 -203 -270 0
196 -244 422 0
-27 109 -324 0
234 -302 -488 0
-9 33 -500 0
-330 371 472 0
178 291 477 0
230 -313 -379 0
-76 352 438 0
75 -91 -222 0
-188 264 453 0
63 -183 -228 0
-16 120 -286 0
45 246 337 0
-47 75 -376 0
174 -186 250 0
-181 182 -395 0
-392 -433 -492 0
19 -113 332 0
-230 250 -428 0
-122 -159 -243 0
-23 92 -398 0
-1 249 361 0
140 178 -369 0
183 -393 441 0
59 -114 -164 0
-104 -153 -437 0
-145 -170 209 0
150 -210 258 0
57 357 -454 0
285 330 -467 0
49 93 -333 0
46 93 422 0
-213 -246 431 0
237 346 -476 0
-45 274 -341 0
-429 -463 473 0
-1 -23 448 0
-44 46 -271 0
7 -157 -266 0
-3 -353 485 0
55 -212 295 0
42 -90 266 0
-331 336 -428 0
-39 49 -77 0
-54 -402 456 0
-127 388 436 0
-29 48 -61 0
-157 -367 423 0
-63 -141 422 0
375 423 470 0
-209 -389 -440 0
301 -489 -490 0
189 386 438 0
94 102 122 0
-71 -167 -220 0
275 400 -403 0
-358 405 -476 0
-14 -27 32 0
6 -20 358 0
113 -173 278 0
-211 -274 -459 0
-216 -396 -410 0
63 -224 395 0
-32 -422 446 0
-120 187 240 0
-39 -183 470 0
-236 293 394 0
109 -123 -210 0
-13 399 -415 0
60 -187 304 0
-232 -275 309 0
115 309 -341 0
-56 -445 474 0
-181 -220 279 0
293 384 463 0
59 62 72 0
-14 39 -226 0
-52 -298 -383 0
-133 141 -466 0
-197 -201 482 0
265 359 453 0
-197 -280 436 0
-65 197 -298 0
143 257 -496 0
-6 14 -489 0
-51 -282 336 0
303 -452 466 0
125 -272 -328 0
-17 81 -170 0
-163 260 483 0
206 345 357 0
-74 -128 -266 0
-94 -201 436 0
-17 22 145 0
72 118 -302 0
64 -352 392 0
-121 -234 349 0
-277 -337 -487 0
-244 426 -465 0
16 129 -274 0
20 -272 -450 0
90 -100 -384 0
25 -85 339 0
223 238 -440 0
245 -401 476 0
-44 -115 462 0
27 -47 358 0
-262 289 399 0
133 -207 -473 0
-83 247 322 0
199 337 -394 0
58 -437 463 0
-145 221 301 0
66 -74 -304 0
-57 75 -378 0
78 317 -471 0
-175 -255 270 0
-95 -242 273 0
15 -105 -229 0
-137 -270 -324 0
255 446 -450 0
9 -183 500 0
-10 -134 274 0
54 -353 468 0
-285 334 488 0
123 377 404 0
-203 417 418 0
107 177 -188 0
-150 -266 392 0
93 104 -145 0
132 -135 -204 0
-21 -168 460 0
268 -318 -398 0
-68 85 -467 0
197 237 370 0
-106 -313 -480 0
198 216 -224 0
78 252 -416 0
-116 187 -414 0
252 316 -460 0
-159 -207 -267 0
-66 394 446 0
-163 -366 -419 0
278 -301 465 0
-104 116 -416 0
125 -146 -291 0
166 189 277 0
390 446 479 0
61 -199 -409 0
-197 -251 487 0
-62 -171 380 0
-168 324 360 0
104 -207 -384 0
-59 -67 -328 0
-67 -169 334 0
-97 176 -464 0
-20 417 -433 0
35 -101 -358 0
265 -295 493 0
15 102 -258 0
-14 164 -304 0
-157 366 389 0
51 308 397 0
63 360 468 0
-101 190 363 0
-47 -114 -191 0
213 -377 -451 0
-56 340 428 0
-65 -138 338 0
225 434 -484 0
-45 -96 484 0
235 238 398 0
-365 -375 403 0
96 -173 196 0
-48 -360 400 0
-84 -376 -381 0
-79 259 -463 0
-43 190 -199 0
240 260 344 0
-161 250 446 0
-189 -418 -462 0
50 -168 -395 0
-32 43 -478 0
-85 -238 -430 0
4 -184 -188 0
-90 320 -500 0
128 -246 -447 0
-27 157 -363 0
147 202 457 0
-73 -194 -492 0
66 -137 -404 0
-199 361 -483 0
177 328 -396 0
17 -225 353 0
-178 238 422 0
94 -137 499 0
307 -370 -430 0
-8 127 252 0
-67 -156 -316 0
-122 -172 456 0
147 -260 432 0
230 321 -324 0
15 -237 -260 0
168 -420 460 0
-140 412 432 0
-85 -321 441 0
-50 198 -303 0
31 228 -471 0
44 214 -361 0
63 173 490 0
-159 -201 -332 0
93 395 -437 0
241 340 -344 0
-24 -154 406 0
-140 -279 -433 0
-221 342 422 0
141 330 419 0
-387 391 -488 0
17 -177 259 0
39 -204 -486 0
49 -123 -474 0
41 -157 250 0
-153 -419 -441 0
-177 213 -433 0
-201 -376 425 0
49 113 -322 0
20 -178 -310 0
-184 -213 -461 0
-195 -395 -458 0
-289 374 412 0
359 -381 476 0
-118 151 421 0
198 214 -489 0
241 273 372 0
-292 419 -473 0
-47 211 -308 0
-80 338 352 0
-320 343 -411 0
-41 103 399 0
129 -389 410 0
-76 -98 484 0
-37 44 -180 0
-43 169 489 0
276 413 -416 0
-34 212 -396 0
-194 421 432 0
-105 203 -461 0
222 -227 312 0
-39 -209 -258 0
-109 153 293 0
-181 231 -487 0
-93 -99 -473 0
-193 -204 422 0
-244 -353 387 0
242 397 -400 0
103 -254 443 0
-42 146 -214 0
-88 -95 -169 0
253 -446 -486 0
-105 -129 -138 0
153 422 447 0
194 -230 393 0
84 -342 -476 0
194 -203 486 0
-71 -214 408 0
-197 -340 -399 0
93 127 -286 0
144 -274 -485 0
-114 -195 -304 0
-55 -283 -456 0
-59 -147 153 0
23 98 -488 0
-10 14 -377 0
-57 -359 -496 0
-19 90 470 0
155 337 -497 0
-33 140 203 0
-67 -238 409 0
-41 304 -382 0
-443 -481 483 0
-394 400 -493 0
-91 208 -454 0
14 412 496 0
-49 -158 473 0
-174 -213 -431 0
85 -176 178 0
148 -316 -476 0
