c description: Random 3-CNF over 500 variables and 2129 clauses
c generator: CNFgen (0.9.6)
c copyright: (C) 2012-2026 Massimo Lauria <massimo.lauria@uniroma1.it>
c url: https://massimolauria.net/cnfgen
c command line: cnfgen randkcnf 3 500 2129
c
p cnf 500 2129
-25 368 373 0
-241 417 470 0
31 104 158 0
-162 238 241 0
77 92 -339 0
175 200 363 0
-235 -250 -332 0
68 104 -404 0
282 366 -427 0
2 -193 -408 0
296 352 -395 0
-75 -113 236 0
252 320 -473 0
175 -390 -394 0
54 361 445 0
-30 346 438 0
4 -96 206 0
-128 153 -496 0
55 353 -359 0
102 -178 407 0
-224 -294 447 0
10 17 331 0
-124 -203 -263 0
56 208 -355 0
118 -325 -399 0
-160 -393 -435 0
208 280 -459 0
132 387 -431 0
-3 238 -394 0
-308 -447 475 0
123 -483 496 0
90 173 -400 0
10 321 400 0
32 -250 409 0
-36 -448 488 0
-101 288 -341 0
145 161 -478 0
-144 154 218 0
94 -242 -321 0
111 -178 -435 0
40 -236 370 0
25 -93 -390 0
57 75 419 0
-84 -235 473 0
11 174 318 0
159 308 -359 0
-84 -114 -248 0
32 273 -290 0
-272 -454 -489 0
133 -175 212 0
-190 -278 -286 0
43 -291 321 0
-95 238 -304 0
19 -308 429 0
-192 -208 399 0
-13 79 303 0
82 112 271 0
-28 -319 -495 0
-4 -220 274 0
-100 118 -469 0
34 243 276 0
86 -154 -420 0
-14 162 320 0
-159 -241 243 0
-268 -356 414 0
56 -267 485 0
-236 -365 419 0
10 -13 -313 0
-92 -294 411 0
103 351 472 0
124 262 -481 0
-221 -321 376 0
49 301 380 0
-105 -370 -470 0
-98 337 -441 0
154 -335 -373 0
-33 -140 194 0
-6 101 -140 0
-196 -209 368 0
-89 -106 -262 0
-103 256 347 0
25 -351 355 0
-295 -386 441 0
-16 250 362 0
110 373 480 0
17 268 -340 0
229 -264 -460 0
-78 -124 349 0
17 -256 393 0
46 351 419 0
35 36 169 0
156 251 281 0
-186 363 -493 0
224 -303 379 0
-138 -222 246 0
-206 348 -500 0
137 180 -239 0
235 389 496 0
-101 -366 -474 0
-85 172 -465 0
5 -79 415 0
-226 -422 -438 0
-208 -275 484 0
67 256 417 0
6 -215 -474 0
110 148 327 0
-280 -447 -498 0
203 227 288 0
85 216 -411 0
7 209 -387 0
-2 -297 -448 0
-88 -325 -445 0
24 154 -192 0
336 -488 489 0
-90 126 375 0
63 285 423 0
284 -313 -398 0
-89 179 286 0
-117 -329 -356 0
91 -238 381 0
344 -354 362 0
-38 114 128 0
-125 248 -324 0
116 -311 -355 0
-45 -140 458 0
-108 330 345 0
-60 355 -447 0
177 324 416 0
263 -327 430 0
58 264 -277 0
-251 385 -486 0
177 219 257 0
141 -149 462 0
-51 95 -489 0
-71 -240 -422 0
49 -98 303 0
-39 -150 -199 0
-108 210 -313 0
-142 -320 -465 0
-60 -196 -412 0
101 -254 327 0
10 -62 -323 0
-83 -161 -426 0
199 205 -464 0
-141 348 -436 0
-52 -270 -428 0
-75 80 342 0
133 258 -429 0
287 322 390 0
-142 -349 -452 0
-30 -149 -476 0
5 -52 293 0
-97 229 -371 0
29 154 -385 0
-63 183 277 0
90 -448 -493 0
-55 57 467 0
-173 255 -397 0
-269 -429 431 0
-133 406 449 0
-78 -180 203 0
153 -352 437 0
-167 -451 479 0
156 243 262 0
-82 -253 -455 0
-292 388 -418 0
128 -383 -416 0
106 314 384 0
-10 221 -278 0
9 275 296 0
65 357 -438 0
264 -307 408 0
36 -222 -328 0
-23 118 448 0
27 342 -498 0
45 -51 156 0
-135 258 -477 0
-46 -148 -237 0
123 338 441 0
-72 457 -484 0
-163 -246 483 0
-90 -330 -442 0
332 -367 371 0
-28 -117 -166 0
-312 409 -410 0
76 206 338 0
-219 289 500 0
118 132 380 0
-97 -308 -430 0
-135 159 -201 0
33 67 459 0
47 -269 -449 0
-301 -483 -497 0
-214 469 -470 0
-34 88 -179 0
345 -350 -432 0
-51 -168 336 0
152 164 456 0
71 253 399 0
108 254 -375 0
-45 124 -491 0
290 461 -488 0
225 -326 -384 0
-67 170 -295 0
-159 194 -234 0
-195 357 416 0
-101 -206 268 0
13 -253 460 0
-111 148 445 0
-184 246 -318 0
401 -421 498 0
207 -459 472 0
175 205 376 0
-63 -143 -487 0
130 -171 -411 0
98 -148 238 0
-122 303 466 0
37 -165 -246 0
120 147 336 0
5 105 -310 0
-124 -236 -454 0
12 185 439 0
-161 329 492 0
70 -289 -452 0
-98 -99 356 0
262 -288 -361 0
328 -335 -367 0
216 234 -444 0
57 99 191 0
41 -382 498 0
-13 -111 457 0
1 -203 422 0
-278 368 456 0
334 354 -438 0
-124 -294 -397 0
356 -401 432 0
-28 -280 -318 0
-301 337 -371 0
210 296 -397 0
-244 -316 -409 0
-27 201 -236 0
-206 319 412 0
116 305 -439 0
-108 -231 252 0
228 -312 481 0
108 263 -314 0
-4 197 345 0
427 453 500 0
339 -384 421 0
98 126 -143 0
-191 -338 -372 0
-197 358 -452 0
-258 -345 -496 0
231 -254 490 0
-411 418 467 0
128 431 -450 0
-94 -98 -129 0
-65 -471 484 0
-39 69 365 0
-198 -250 449 0
-285 353 -500 0
36 175 -213 0
117 -391 474 0
220 -221 -342 0
-2 464 469 0
-144 -432 494 0
3 -245 393 0
-330 -371 -452 0
15 16 -358 0
-72 -240 -290 0
2 101 475 0
-27 -443 487 0
-37 307 333 0
29 297 -447 0
-163 267 465 0
146 271 470 0
169 -370 381 0
7 226 -482 0
-246 -309 389 0
-40 179 -314 0
56 125 -246 0
-79 -110 201 0
-57 233 410 0
-82 183 -478 0
-96 -111 265 0
49 -142 407 0
-122 329 -428 0
-8 171 -216 0
30 270 -337 0
-2 -153 -492 0
-206 414 -415 0
50 -55 487 0
30 176 -204 0
-83 -394 -461 0
-312 315 -433 0
-137 353 -356 0
-30 93 -167 0
-112 347 -351 0
-51 81 -290 0
153 173 201 0
65 331 430 0
35 -189 191 0
-150 -327 -434 0
75 -155 -299 0
374 403 -413 0
175 -340 383 0
242 -286 376 0
34 -130 353 0
-206 -236 -460 0
165 -183 -471 0
123 209 450 0
-177 213 249 0
15 -81 -246 0
-90 -209 460 0
14 172 -476 0
-45 101 -448 0
232 -318 355 0
-5 66 433 0
-159 -192 255 0
144 448 491 0
90 -394 489 0
-92 -330 -352 0
107 362 -396 0
-19 -170 -206 0
154 -489 491 0
102 -118 -157 0
62 -125 192 0
-226 -324 -366 0
140 -152 -163 0
56 207 -302 0
-23 -42 470 0
-97 244 474 0
7 338 447 0
-156 415 428 0
-105 133 -381 0
92 260 392 0
192 -291 -299 0
-134 264 407 0
166 402 453 0
173 340 -368 0
28 455 486 0
-250 383 -411 0
265 -329 -453 0
4 -304 -467 0
-113 -211 300 0
-281 -352 455 0
-246 259 -277 0
44 127 471 0
234 436 490 0
303 393 396 0
26 -100 205 0
115 195 230 0
42 171 497 0
-202 233 273 0
-108 229 -344 0
109 -367 488 0
-235 239 393 0
-47 -346 442 0
65 -267 331 0
-273 289 417 0
125 136 170 0
-127 330 449 0
-103 -115 247 0
2 8 -387 0
268 -300 -495 0
-9 -174 274 0
-184 258 -328 0
-155 169 207 0
-225 -341 -360 0
-118 -160 -183 0
12 -87 -422 0
33 -308 -330 0
-254 352 494 0
-170 345 434 0
-8 -66 -331 0
129 -173 309 0
202 450 490 0
-27 34 -436 0
118 287 296 0
-284 -401 -480 0
152 -213 -451 0
-78 384 446 0
200 -301 339 0
79 -273 454 0
-326 -402 421 0
199 -348 481 0
28 -117 323 0
-137 -449 492 0
-60 353 496 0
-238 -387 -494 0
-9 268 468 0
-248 478 -498 0
-8 -92 -219 0
202 -272 -436 0
-25 -192 290 0
-254 -297 322 0
-48 -127 -387 0
215 -289 -431 0
66 175 436 0
269 334 499 0
-103 -291 473 0
-25 -211 -444 0
-148 -402 496 0
169 -246 298 0
28 314 439 0
-299 -337 -404 0
-57 -362 -465 0
-151 -256 266 0
80 -452 -457 0
-61 163 -481 0
193 -484 490 0
-33 -163 427 0
-129 -228 -343 0
-144 193 -456 0
159 -264 -352 0
-245 -251 -477 0
-262 287 424 0
-48 -191 428 0
391 -449 484 0
-135 427 428 0
155 -427 435 0
112 -299 354 0
83 -181 458 0
207 209 222 0
157 -261 -463 0
-44 -56 -188 0
-31 -288 -384 0
52 -353 -418 0
-181 -398 -497 0
172 -174 360 0
254 303 367 0
-216 333 -437 0
84 -243 438 0
245 262 -479 0
7 -46 -169 0
-172 215 424 0
-133 147 297 0
298 -353 -381 0
-68 -256 -411 0
208 226 -404 0
-369 379 -449 0
-51 290 -433 0
-153 243 276 0
109 -231 -462 0
202 313 -408 0
-8 385 -441 0
166 175 -394 0
131 -326 -462 0
-102 -324 328 0
-22 142 451 0
213 266 422 0
386 437 463 0
89 163 388 0
206 242 440 0
-132 340 437 0
171 330 496 0
247 258 -461 0
104 -220 -283 0
210 405 -413 0
116 -182 223 0
276 -351 448 0
-78 -336 391 0
-107 125 234 0
333 -397 -428 0
-6 -109 339 0
159 -233 476 0
249 -400 490 0
-111 -220 -471 0
129 -254 471 0
-164 -321 -361 0
-115 -226 255 0
-58 -65 293 0
-378 -466 -476 0
118 401 493 0
-32 111 409 0
-8 22 -152 0
-359 379 396 0
74 179 215 0
40 -358 366 0
71 360 -449 0
-99 -234 -400 0
-64 -115 488 0
-59 182 350 0
-146 -358 -451 0
-323 -370 -435 0
-131 -182 279 0
201 -348 -403 0
172 228 -394 0
193 349 -488 0
-54 122 -396 0
326 384 -418 0
-103 196 -317 0
-89 254 474 0
-14 71 -81 0
-150 -167 -358 0
136 -161 -321 0
-71 -120 -216 0
-24 -286 388 0
168 211 -297 0
19 103 -496 0
-232 245 -471 0
32 148 394 0
-151 -186 210 0
-165 316 -404 0
-13 145 456 0
153 -355 -406 0
-49 -262 -498 0
138 -148 -355 0
-41 91 367 0
-16 53 -308 0
-360 404 485 0
-143 -311 372 0
221 330 425 0
121 -261 -433 0
-151 -259 267 0
-167 283 -343 0
-189 -335 -409 0
-9 32 -247 0
102 157 -295 0
194 -399 494 0
-416 470 -480 0
-283 -415 491 0
74 270 -298 0
152 -154 -365 0
120 218 344 0
-276 282 -375 0
-273 -280 -429 0
178 -233 -448 0
-274 -433 -440 0
-283 -451 498 0
184 207 383 0
299 383 428 0
-71 220 437 0
-459 477 482 0
-203 266 449 0
15 183 334 0
110 358 -363 0
104 -257 -472 0
-334 408 -446 0
281 -373 -452 0
-27 397 438 0
-70 247 -478 0
200 401 423 0
-58 -235 -452 0
-61 65 176 0
-332 362 -436 0
-68 -391 -436 0
2 262 -421 0
141 314 -413 0
-32 -83 307 0
26 -41 324 0
28 -39 75 0
25 -195 -218 0
-28 82 -212 0
53 135 -475 0
75 102 -212 0
232 456 -473 0
-151 -186 -264 0
-36 82 -479 0
-226 257 -313 0
-54 150 189 0
130 274 275 0
-249 280 455 0
-68 85 -101 0
-148 -266 290 0
211 -249 -332 0
148 358 445 0
-338 -358 365 0
55 -105 -308 0
-10 200 -261 0
-154 397 423 0
57 251 -473 0
82 202 302 0
93 -189 290 0
-121 221 482 0
189 -250 387 0
-276 302 335 0
32 127 327 0
-48 -254 -337 0
-172 -264 293 0
-145 -306 -429 0
23 201 390 0
329 451 461 0
-172 -195 -497 0
-126 299 491 0
93 198 -289 0
33 207 484 0
-171 -355 450 0
161 324 -398 0
-179 205 -462 0
-100 204 -361 0
35 278 408 0
-20 -78 -424 0
195 -226 -327 0
11 -337 417 0
-254 367 -451 0
144 -193 -467 0
42 -287 -377 0
-135 -224 266 0
245 -433 492 0
243 282 -389 0
-16 -325 490 0
143 -230 -366 0
358 423 -472 0
-10 355 439 0
-60 -64 -324 0
-127 345 -445 0
171 375 417 0
-254 334 374 0
-61 -218 -395 0
36 125 -271 0
90 -139 337 0
193 411 -486 0
130 172 451 0
-30 -304 381 0
-232 283 450 0
-304 -331 351 0
94 255 465 0
54 -322 -435 0
117 151 227 0
46 297 360 0
82 191 -493 0
154 385 -388 0
-201 210 -357 0
264 -390 403 0
88 -92 460 0
-120 175 220 0
-39 -243 -472 0
119 -310 453 0
347 385 -426 0
-348 453 473 0
-242 -323 -445 0
231 -356 435 0
102 394 -404 0
-65 73 356 0
-1 -87 -226 0
-277 293 401 0
168 -177 371 0
-172 -227 402 0
-384 416 498 0
44 328 -386 0
91 132 -153 0
-92 -281 -463 0
138 247 -422 0
-292 395 -475 0
-5 96 269 0
76 -251 -406 0
-51 -277 -366 0
237 353 378 0
-243 -325 -403 0
162 315 347 0
97 418 -428 0
176 306 361 0
-273 -343 -415 0
-28 135 399 0
24 80 376 0
-146 -214 -272 0
20 180 -355 0
-247 -290 -458 0
-81 -93 371 0
131 -356 -395 0
158 -230 -369 0
-139 -292 373 0
-166 215 -412 0
-27 123 -195 0
-11 263 264 0
221 339 -429 0
386 -400 407 0
51 -76 190 0
-290 319 499 0
-2 33 258 0
-102 -233 301 0
265 374 -404 0
-133 212 288 0
60 220 -358 0
125 146 -427 0
154 -209 -499 0
-116 -152 477 0
146 170 218 0
232 -246 -329 0
10 -86 -349 0
37 -126 -409 0
-116 255 263 0
-149 243 -495 0
-9 -117 -168 0
211 287 338 0
-280 -308 -451 0
-46 236 464 0
-58 78 498 0
312 -319 -461 0
-10 -220 285 0
56 129 -446 0
226 -331 -485 0
296 -301 -409 0
-133 -183 405 0
166 -229 -393 0
259 317 412 0
-142 260 328 0
-195 -286 -312 0
-196 -249 269 0
15 125 -251 0
213 -443 478 0
125 -297 450 0
-265 -440 -451 0
-13 -355 -496 0
-308 -331 -471 0
169 247 488 0
190 -289 -330 0
-68 258 -435 0
-113 166 -244 0
35 -206 237 0
38 293 -424 0
-53 -110 282 0
46 166 -262 0
-8 -191 204 0
327 -341 460 0
-394 416 493 0
34 -182 341 0
83 -176 315 0
-34 299 -423 0
-57 -105 118 0
241 -351 -359 0
134 270 -346 0
-239 437 -450 0
344 -467 -474 0
-106 240 -280 0
85 -231 -284 0
379 -383 397 0
-169 -191 285 0
-202 -338 444 0
-2 -130 398 0
290 -423 491 0
19 223 444 0
-108 -241 444 0
180 -465 -483 0
91 123 255 0
181 -268 374 0
-170 -449 483 0
97 -270 -393 0
-307 -341 -478 0
-134 220 298 0
29 94 -174 0
-78 -255 -365 0
-89 172 -326 0
-103 -138 -298 0
35 197 -319 0
-224 -349 -435 0
-33 229 258 0
-32 -311 -494 0
-53 -93 313 0
-50 -85 -171 0
-100 -197 -436 0
-6 -254 -469 0
66 -312 317 0
1 148 345 0
-229 -452 -470 0
241 337 460 0
-183 202 -231 0
-299 450 494 0
-4 268 387 0
-390 -442 489 0
169 -298 333 0
-99 -202 263 0
293 432 -482 0
-166 320 -447 0
110 -349 450 0
-311 332 480 0
-230 -293 362 0
-349 459 -495 0
44 90 -208 0
31 -325 412 0
5 304 335 0
81 113 -331 0
-102 359 372 0
265 266 423 0
171 182 404 0
-233 -430 -443 0
35 335 -489 0
-227 238 379 0
183 -296 -371 0
-61 312 -397 0
-43 307 368 0
-265 -347 410 0
57 160 -365 0
-74 112 -418 0
-6 -147 487 0
105 152 -467 0
-95 -203 -307 0
-104 -146 427 0
286 -320 -410 0
276 393 -477 0
185 -223 326 0
-149 -196 -410 0
1 -151 328 0
-52 -102 -427 0
96 148 220 0
11 -282 -454 0
-302 356 493 0
49 -226 -414 0
252 434 492 0
139 197 -214 0
1 226 262 0
-3 -328 397 0
-290 -301 322 0
-148 -423 -467 0
-290 -394 443 0
-190 264 -493 0
18 -342 474 0
113 256 -414 0
-152 -241 344 0
35 380 463 0
23 -108 -364 0
-10 -12 -204 0
-18 -306 320 0
211 295 -357 0
-210 252 -413 0
-49 -86 -319 0
276 286 459 0
178 373 -447 0
-59 -258 367 0
-104 -252 -412 0
30 136 -474 0
-104 252 408 0
-426 476 492 0
-320 -411 -496 0
154 225 405 0
-149 -309 -403 0
-145 -184 217 0
-79 84 151 0
-59 -293 352 0
85 -172 268 0
-115 -195 490 0
-284 379 -440 0
46 -404 469 0
127 268 290 0
49 -168 -344 0
85 132 -390 0
200 374 419 0
-174 -316 435 0
-210 -274 -305 0
-31 -33 186 0
81 108 -218 0
-57 -183 272 0
58 -114 -163 0
-57 -371 -376 0
49 -118 303 0
16 -27 -460 0
-63 140 -216 0
-150 -386 479 0
-16 -169 -483 0
146 -267 -469 0
-217 -309 -368 0
-36 129 -406 0
27 57 312 0
-64 233 420 0
-154 -232 369 0
-176 -388 412 0
-46 65 -229 0
250 252 288 0
64 265 421 0
-37 -357 401 0
48 92 -465 0
202 -205 -364 0
82 -215 -423 0
-298 -394 -464 0
-55 138 -234 0
-32 -237 -318 0
167 203 290 0
-12 -78 441 0
96 216 477 0
-235 361 414 0
-106 365 404 0
130 -173 268 0
133 -203 -251 0
47 -273 -472 0
-243 -312 397 0
-34 264 442 0
-95 -176 459 0
-351 386 448 0
-21 -53 -329 0
51 143 -245 0
-10 268 467 0
-31 126 433 0
69 223 -309 0
20 -75 -85 0
127 193 -337 0
9 289 454 0
-93 150 268 0
-13 -428 474 0
20 -162 -193 0
80 -91 292 0
-21 -194 357 0
255 397 -463 0
-213 -424 -459 0
135 -145 -455 0
-291 -307 -324 0
-33 -49 -322 0
212 -404 -423 0
-272 362 495 0
-317 -326 -354 0
301 -373 -491 0
43 -322 445 0
-172 302 421 0
-43 242 -481 0
-24 -39 -92 0
43 -304 398 0
-114 135 273 0
190 392 433 0
-262 -306 -376 0
249 363 -417 0
135 188 323 0
-206 -300 -313 0
190 203 399 0
-85 302 356 0
-59 128 -447 0
22 145 341 0
-361 -435 441 0
256 264 417 0
-102 -244 497 0
-144 -242 -456 0
-27 -72 -85 0
-128 283 466 0
-63 -418 476 0
-81 230 -484 0
-77 145 425 0
66 133 -234 0
-10 224 415 0
-274 281 -383 0
-208 331 397 0
142 345 -493 0
-153 232 -336 0
385 407 499 0
-21 183 -430 0
4 -261 290 0
133 135 320 0
-18 58 -499 0
-10 -22 204 0
-75 392 -406 0
247 415 -470 0
-38 -145 285 0
41 154 297 0
-100 295 -383 0
60 -236 442 0
-108 238 240 0
-295 370 472 0
58 -264 -319 0
-32 64 189 0
102 423 469 0
-202 425 -439 0
-29 -168 -404 0
115 -225 -326 0
205 -231 478 0
359 444 482 0
-10 160 493 0
-20 285 -320 0
-178 367 429 0
35 80 252 0
-62 106 132 0
97 183 271 0
-123 -124 -330 0
-304 350 372 0
-18 357 -481 0
-51 140 -481 0
90 92 -459 0
95 211 -352 0
-103 146 -324 0
-204 280 -484 0
12 -255 456 0
-167 -221 297 0
136 -203 -251 0
17 106 -321 0
-326 398 -442 0
-51 -194 -431 0
-271 -296 483 0
-64 -281 475 0
125 293 420 0
-98 -264 -290 0
186 369 371 0
23 -259 -264 0
11 -21 -52 0
-146 -237 -298 0
45 -276 380 0
75 -278 305 0
298 425 -468 0
38 -147 270 0
110 -310 347 0
-107 235 374 0
1 2 79 0
231 -368 -496 0
-43 89 -219 0
-16 -205 355 0
-216 -261 -312 0
112 298 455 0
88 -179 431 0
-98 -248 -461 0
11 240 431 0
132 190 234 0
-307 -366 477 0
101 -287 -291 0
-16 -253 -279 0
-4 153 362 0
5 -10 -197 0
168 347 -414 0
-34 152 -329 0
-83 346 -499 0
-4 -374 379 0
264 311 -339 0
-155 -201 485 0
9 188 -307 0
-183 197 403 0
-11 -55 -222 0
-8 169 -238 0
-67 235 -471 0
141 -340 350 0
-27 221 450 0
-146 164 268 0
-180 -208 266 0
-12 -365 431 0
232 -238 300 0
-88 276 -324 0
-114 -238 441 0
-279 -344 -500 0
5 213 -300 0
46 167 -333 0
-25 -328 -427 0
44 65 319 0
80 -162 250 0
29 -93 393 0
54 136 217 0
295 342 366 0
-143 171 -381 0
85 159 325 0
-74 370 -444 0
117 -124 -204 0
135 -264 341 0
-34 234 -237 0
39 -192 253 0
82 91 361 0
130 -161 292 0
95 -409 456 0
-147 159 201 0
-34 166 -233 0
243 -455 495 0
61 -217 497 0
-106 -158 339 0
-160 322 396 0
50 -108 175 0
115 241 -481 0
54 247 -254 0
-83 -364 496 0
-125 -184 -491 0
6 -137 286 0
-61 -274 298 0
-34 -320 -350 0
161 -363 -372 0
146 168 309 0
-222 230 308 0
-207 -277 379 0
-79 -208 -278 0
86 93 -128 0
123 218 406 0
-251 389 500 0
226 -383 -386 0
215 -234 464 0
-84 -90 323 0
28 102 -143 0
25 -96 -437 0
-33 469 492 0
-1 -281 356 0
204 371 -480 0
15 -191 -238 0
-198 275 -377 0
-78 113 -241 0
-77 327 -417 0
26 -409 421 0
-58 73 345 0
-157 176 187 0
-65 -151 -297 0
21 -102 462 0
40 83 -408 0
-36 -231 354 0
27 274 -428 0
-17 -21 -304 0
-24 -160 -371 0
8 -50 -244 0
-21 26 232 0
138 -150 207 0
13 112 -163 0
-39 -56 464 0
-226 -366 425 0
35 245 -416 0
-249 479 487 0
112 -288 448 0
-239 328 372 0
278 289 358 0
-201 -334 -440 0
-17 -137 -496 0
137 -165 499 0
228 251 -498 0
87 228 390 0
-87 -159 166 0
163 310 463 0
146 -273 -335 0
266 -483 -496 0
70 147 -471 0
264 408 -436 0
-45 -157 219 0
-153 310 -341 0
10 183 416 0
-189 -395 -492 0
-91 124 -413 0
207 -407 -429 0
72 -158 -312 0
-149 -182 488 0
-117 -386 427 0
2 64 265 0
-94 -198 348 0
-231 -390 483 0
-195 282 -433 0
167 259 -438 0
-79 95 124 0
-225 262 -483 0
-205 -342 -377 0
-161 311 477 0
-101 160 349 0
270 279 -365 0
106 184 374 0
-37 116 -203 0
109 -238 327 0
138 -149 235 0
-172 -321 -368 0
-38 47 189 0
4 -43 98 0
-33 247 -257 0
-213 -265 335 0
27 152 -165 0
149 -172 -458 0
59 -161 -225 0
-218 296 -485 0
-236 289 -479 0
-157 167 197 0
71 273 -321 0
-113 -170 -486 0
311 459 495 0
222 -335 357 0
105 -179 -469 0
-265 -380 392 0
-97 375 398 0
-157 -178 365 0
20 27 -453 0
-230 -369 405 0
42 -272 300 0
-219 361 -371 0
-99 230 488 0
-37 -206 -369 0
114 -207 -315 0
2 110 169 0
283 -385 -492 0
58 -168 482 0
-60 -77 164 0
-54 261 389 0
-177 -293 -363 0
26 -259 -409 0
-80 -212 490 0
-229 -275 -366 0
74 133 -413 0
-104 475 486 0
-26 -284 477 0
168 357 -406 0
256 -281 351 0
88 -98 -470 0
207 208 292 0
-167 436 474 0
-97 -245 455 0
-167 457 491 0
293 -296 342 0
-238 462 497 0
-128 207 -477 0
-31 431 435 0
-4 -131 -487 0
-6 -223 327 0
-59 -97 -425 0
-93 -300 359 0
163 -244 426 0
138 -264 338 0
-100 368 -397 0
-17 -181 391 0
-52 -272 341 0
-73 -107 218 0
-88 -426 -461 0
-69 -201 466 0
109 -324 -335 0
-167 -189 441 0
-193 245 446 0
60 130 -307 0
-203 347 -432 0
-36 134 159 0
67 -161 185 0
4 -352 -353 0
430 -468 -483 0
-360 -384 -420 0
198 -390 484 0
-276 -298 339 0
189 -286 -316 0
-157 -187 458 0
27 -133 283 0
-209 220 267 0
110 184 -476 0
44 47 471 0
51 -270 -380 0
46 -78 288 0
-81 -110 273 0
152 292 -399 0
35 -445 -446 0
263 -346 -443 0
31 114 -269 0
-185 280 468 0
-66 224 493 0
-347 355 485 0
38 -266 -496 0
-129 183 483 0
-140 -255 -263 0
145 -162 219 0
134 257 332 0
90 -338 -454 0
-164 -221 -232 0
103 188 -371 0
-57 311 376 0
-305 478 -482 0
-23 35 -228 0
-20 -59 106 0
-194 -222 485 0
-387 417 -433 0
76 316 -455 0
25 -254 419 0
-87 123 262 0
-143 337 -383 0
-109 158 -249 0
268 -373 -424 0
13 -78 331 0
-30 183 322 0
1 -116 -500 0
-108 -160 -227 0
26 402 -445 0
-225 360 -485 0
112 -383 464 0
-256 -365 -409 0
97 114 448 0
4 -414 429 0
-359 440 468 0
227 359 364 0
73 -154 286 0
-165 194 309 0
265 292 -355 0
-88 276 -469 0
-104 229 -254 0
-77 223 306 0
45 347 396 0
21 212 -431 0
-223 320 397 0
-201 -260 -491 0
80 161 -245 0
-219 230 249 0
-65 -206 265 0
-100 176 323 0
45 -179 -337 0
-65 -413 415 0
186 -199 -381 0
37 417 492 0
-278 479 485 0
268 -351 455 0
-3 375 -379 0
286 -363 -476 0
160 -269 -441 0
37 -212 -470 0
98 -378 -420 0
-103 -149 259 0
-83 100 -110 0
-72 -367 391 0
-20 -167 238 0
78 382 -453 0
-27 114 472 0
80 154 289 0
-52 296 487 0
-306 317 344 0
41 -105 -232 0
-64 -443 -488 0
264 -405 -498 0
-95 -328 358 0
47 -172 -483 0
-157 169 198 0
7 -67 -454 0
200 -201 500 0
-12 -361 -494 0
79 -353 -433 0
-36 349 -382 0
269 -275 -381 0
-111 145 -332 0
-229 293 322 0
101 171 172 0
110 362 -498 0
-203 218 436 0
149 200 334 0
134 -232 349 0
-125 361 -493 0
-91 -387 482 0
60 -178 332 0
90 -164 285 0
-132 -259 -416 0
-242 295 408 0
97 204 385 0
-105 213 -233 0
-20 313 387 0
-128 -408 416 0
-26 -45 -304 0
-390 464 -481 0
192 363 396 0
226 -279 310 0
7 249 438 0
-29 -179 324 0
178 -448 465 0
221 -344 362 0
101 393 -493 0
42 152 -407 0
168 314 332 0
120 -226 360 0
130 208 396 0
-35 -130 218 0
44 317 438 0
-53 -386 410 0
98 267 -347 0
-160 259 486 0
1 128 -318 0
-243 -339 441 0
-269 -311 356 0
329 -341 401 0
-31 -323 -471 0
-45 -91 -102 0
228 365 488 0
18 -403 -417 0
86 114 153 0
62 189 243 0
-245 -279 298 0
2 -294 399 0
33 374 430 0
-7 31 -295 0
18 -289 -459 0
-224 256 -440 0
-127 -453 -454 0
273 287 -491 0
-86 226 243 0
-81 137 141 0
-122 416 448 0
190 -351 377 0
-237 -256 432 0
14 53 430 0
149 155 -306 0
76 147 494 0
33 119 143 0
-242 354 481 0
-268 282 377 0
3 9 124 0
-200 -267 -455 0
-74 -260 -385 0
-113 -307 322 0
33 -99 415 0
105 -107 -429 0
-127 -402 -417 0
170 -295 -307 0
216 396 -439 0
-33 225 393 0
-155 296 -422 0
-101 -173 226 0
39 -45 -334 0
-142 210 -264 0
80 -147 348 0
201 -226 -370 0
152 -261 297 0
154 -248 334 0
-152 -467 -478 0
151 -450 -488 0
168 433 -459 0
-152 211 -400 0
71 235 -461 0
-14 -55 -363 0
207 303 493 0
-183 372 -493 0
-124 169 219 0
-406 -438 -475 0
255 269 -369 0
64 339 -462 0
106 -239 -325 0
87 437 488 0
-106 337 -398 0
-62 280 -360 0
43 199 -253 0
77 84 -350 0
-333 421 458 0
59 283 404 0
110 -277 429 0
-62 115 330 0
86 207 312 0
99 168 -487 0
47 91 97 0
-104 -111 -179 0
23 -55 85 0
351 -376 455 0
22 136 144 0
-42 -115 -143 0
236 -247 254 0
214 233 244 0
-46 -132 174 0
132 -230 -351 0
-64 -182 -186 0
93 301 -428 0
-243 472 489 0
-36 -55 231 0
-113 314 379 0
-26 327 -486 0
282 314 398 0
-7 -170 311 0
-105 124 441 0
-237 -297 370 0
202 226 -497 0
-123 246 -280 0
-78 102 -213 0
35 476 487 0
11 188 353 0
-7 -179 -428 0
-82 188 428 0
-130 -169 263 0
185 354 -424 0
-57 68 314 0
131 -296 412 0
-267 308 432 0
52 -239 -442 0
-229 260 394 0
25 81 104 0
-68 -110 -206 0
147 -174 -358 0
-86 266 401 0
81 -89 417 0
19 -195 -492 0
-185 -232 -262 0
183 238 -449 0
240 294 443 0
-52 -324 -439 0
183 363 464 0
151 -278 486 0
-140 -333 -457 0
231 -283 -337 0
207 -270 307 0
-85 -419 451 0
-58 225 434 0
11 -351 361 0
-290 -324 382 0
-332 -445 473 0
195 301 412 0
-81 -148 -277 0
-149 242 -433 0
16 -25 402 0
-210 -398 474 0
220 284 430 0
-24 286 414 0
6 228 -484 0
-136 -195 356 0
43 121 -367 0
388 -391 -450 0
34 -123 -422 0
-264 -301 -438 0
229 363 -369 0
132 -231 243 0
7 -30 -290 0
-316 -372 486 0
23 -38 -103 0
-50 -160 183 0
226 235 -314 0
74 202 -490 0
88 -133 -380 0
85 -157 -495 0
51 142 -158 0
-57 246 313 0
-277 368 -486 0
29 -169 -252 0
-189 458 488 0
-151 -311 405 0
-139 -175 263 0
-226 -418 420 0
263 -410 499 0
-14 -337 361 0
78 119 397 0
250 -409 -482 0
5 -274 -447 0
-53 276 339 0
15 -67 -382 0
51 110 -478 0
-8 273 -368 0
185 323 484 0
31 160 -303 0
-277 -326 407 0
206 -337 -415 0
-62 -342 -441 0
-90 255 325 0
-206 209 210 0
-71 116 500 0
-147 -199 396 0
41 109 -267 0
64 65 390 0
-78 -122 -298 0
67 -113 -195 0
16 -110 -212 0
17 160 -387 0
52 199 -420 0
-35 -389 410 0
-16 131 -163 0
11 -449 492 0
-103 106 293 0
-16 -227 233 0
-18 -83 325 0
-68 -444 -472 0
-127 340 425 0
-56 134 -199 0
149 329 468 0
150 -271 -378 0
-26 -319 -399 0
-393 -403 -443 0
-147 -280 414 0
-88 445 494 0
-64 -91 -133 0
-196 -292 500 0
-107 -439 -450 0
275 390 -470 0
-202 232 312 0
179 -225 -458 0
228 -272 304 0
157 -345 416 0
-11 150 285 0
-70 -289 -325 0
227 343 -495 0
166 -167 380 0
-48 -57 -490 0
-30 -347 477 0
-65 130 232 0
63 112 -430 0
97 -405 -408 0
45 173 481 0
-17 -220 -356 0
-46 62 -476 0
-98 367 398 0
-298 -309 -461 0
-2 412 -470 0
72 -354 -355 0
67 -266 329 0
134 162 320 0
-142 179 208 0
279 -431 -487 0
-9 -20 -260 0
164 -165 340 0
100 -419 -474 0
259 330 -338 0
-129 -198 -463 0
-76 -122 -434 0
187 -317 351 0
160 -253 -496 0
56 -81 313 0
-73 -164 397 0
-18 325 352 0
140 -164 494 0
120 -251 464 0
134 292 -490 0
-35 -159 166 0
-62 224 -396 0
24 -204 248 0
-21 30 -458 0
42 333 482 0
121 147 -415 0
116 309 343 0
25 156 -469 0
-168 335 339 0
15 86 -241 0
-50 -92 467 0
-199 272 343 0
-30 -256 343 0
267 -341 -348 0
-172 -269 -433 0
201 429 -485 0
55 -279 -352 0
-407 429 -462 0
52 292 297 0
-170 199 -450 0
74 -349 -389 0
196 343 384 0
-45 -135 402 0
123 352 -418 0
23 -342 -476 0
87 -267 -440 0
-127 -162 -432 0
-136 161 220 0
240 -304 -491 0
-20 196 -331 0
69 -85 182 0
-55 -135 -355 0
45 -263 -330 0
217 -392 416 0
-9 -88 -296 0
278 294 422 0
-60 -106 411 0
-343 -370 -459 0
165 -300 -494 0
129 -175 464 0
-85 -153 -285 0
353 418 422 0
-21 155 -229 0
-90 -305 363 0
-29 205 473 0
103 -191 494 0
42 175 354 0
-261 313 -406 0
207 -353 -383 0
-70 160 441 0
-164 371 -441 0
-130 362 377 0
131 242 -427 0
-337 407 -410 0
-130 245 -289 0
254 285 370 0
16 -343 350 0
-305 -306 -457 0
-116 -241 320 0
93 266 -483 0
-240 -324 -386 0
246 247 -251 0
227 301 496 0
-107 219 -237 0
62 -204 389 0
288 -319 -346 0
-102 -306 342 0
-441 453 -469 0
341 -371 499 0
183 209 280 0
-65 -314 323 0
-299 379 -428 0
-3 193 294 0
-7 241 -275 0
-141 354 418 0
155 177 -220 0
-242 329 364 0
-62 -429 -434 0
10 232 -468 0
290 325 485 0
-27 73 -143 0
118 -395 -471 0
30 -82 -401 0
45 -365 -389 0
-248 387 410 0
7 106 -244 0
123 -187 407 0
247 -263 345 0
-206 -385 -426 0
103 -239 -443 0
-72 -278 -367 0
63 141 -400 0
64 -104 483 0
-96 116 389 0
159 -402 468 0
29 318 -488 0
107 110 418 0
242 -325 435 0
-147 263 370 0
142 -304 427 0
-5 -39 305 0
273 282 408 0
-247 -284 500 0
-216 263 387 0
-154 -309 -377 0
19 21 316 0
10 -239 371 0
-192 -292 -420 0
-199 324 450 0
-126 -370 -381 0
102 295 310 0
-48 113 455 0
293 -298 340 0
-265 -318 435 0
81 -149 186 0
-153 222 321 0
-17 -78 -106 0
-48 -454 -499 0
25 190 -299 0
-33 -219 -422 0
358 410 -496 0
9 -280 331 0
186 254 -369 0
-145 350 -435 0
2 -320 -476 0
-385 457 -476 0
34 -241 425 0
-38 -127 -374 0
-419 -422 440 0
-348 352 372 0
95 -161 320 0
-21 -175 -446 0
-108 169 483 0
104 152 182 0
-75 283 -333 0
61 393 487 0
-219 296 -493 0
-42 290 -305 0
-28 -134 385 0
-190 258 485 0
-302 -310 438 0
-39 107 -290 0
-70 153 -220 0
82 87 -378 0
-1 345 416 0
-137 -151 -455 0
-339 -378 -406 0
30 307 448 0
119 -269 396 0
244 -314 -470 0
-22 -303 489 0
13 -127 136 0
-33 150 -224 0
-27 -54 369 0
-189 197 391 0
-110 380 459 0
-139 -185 224 0
178 211 -497 0
118 -326 -440 0
2 -54 265 0
106 -261 -269 0
-68 377 -390 0
3 11 -192 0
-204 -282 -380 0
-15 93 255 0
-238 389 -490 0
11 296 -388 0
-2 -30 35 0
43 -168 -183 0
160 -401 -423 0
-245 351 -464 0
356 413 429 0
101 231 -427 0
124 -325 415 0
37 -81 -415 0
44 329 -458 0
-149 -163 -421 0
-131 221 327 0
-38 122 -344 0
69 -110 -212 0
29 -83 375 0
-32 -159 233 0
-164 346 -411 0
59 -67 -216 0
-145 146 180 0
-24 80 187 0
72 299 -368 0
285 -319 406 0
420 -427 478 0
110 388 469 0
142 307 442 0
77 -132 427 0
67 387 -406 0
6 214 -300 0
67 -191 -324 0
266 -273 -429 0
8 -254 -364 0
109 -114 -125 0
-191 -391 470 0
-36 358 -366 0
215 -379 444 0
-42 127 447 0
-177 -437 441 0
304 359 362 0
-210 -392 469 0
209 338 358 0
-233 -397 -451 0
-170 -212 -385 0
294 333 499 0
-26 -309 -420 0
33 -54 -496 0
90 -142 440 0
-137 367 -442 0
-81 -112 447 0
98 113 216 0
-115 267 -390 0
10 -58 -303 0
199 -326 366 0
-74 224 476 0
270 -413 -447 0
-254 -290 470 0
74 -264 -379 0
29 -285 -394 0
-66 -79 210 0
50 171 414 0
-131 -246 -293 0
-102 220 -429 0
130 -444 -448 0
265 -268 361 0
30 -236 -269 0
149 -226 273 0
82 325 453 0
-195 -270 433 0
-26 133 207 0
-80 317 361 0
316 -383 497 0
-174 265 -321 0
63 71 403 0
184 -193 399 0
49 -75 175 0
282 409 450 0
329 -469 473 0
117 -256 388 0
-217 299 -369 0
173 292 315 0
30 -345 -358 0
-184 -317 -447 0
-10 -183 -213 0
7 346 -414 0
-88 -368 -468 0
-30 300 -332 0
-14 259 433 0
-93 118 -422 0
128 -134 -166 0
-100 -143 485 0
426 -442 -490 0
-24 116 427 0
-35 -430 499 0
231 262 -391 0
136 331 409 0
158 -230 -251 0
-14 155 456 0
-54 -345 -479 0
321 -367 426 0
223 -345 361 0
73 -218 492 0
55 132 -181 0
41 50 493 0
9 74 -467 0
148 316 -477 0
278 359 397 0
-250 -300 -377 0
408 428 -464 0
-253 267 -395 0
-153 209 475 0
-7 -366 -442 0
239 307 409 0
315 -325 474 0
-125 222 -386 0
35 -255 -273 0
274 -344 411 0
-77 163 214 0
-350 444 -461 0
37 363 -373 0
195 376 426 0
-321 410 -423 0
28 -204 -426 0
-52 -222 -312 0
-109 -444 471 0
-150 166 366 0
-117 -381 -450 0
69 213 433 0
16 -453 475 0
106 -276 454 0
137 -351 -375 0
40 380 411 0
34 -406 500 0
114 -198 318 0
-9 244 -442 0
-130 -210 -243 0
-29 434 -456 0
149 -229 480 0
81 -271 415 0
61 -311 -483 0
50 -103 456 0
201 -437 -473 0
-108 -288 318 0
49 -295 -417 0
-20 -46 111 0
44 109 183 0
29 -266 -468 0
-100 257 -464 0
-299 360 390 0
-113 433 464 0
-65 181 -283 0
88 260 418 0
-179 -384 -471 0
168 -379 448 0
47 -185 468 0
65 -122 357 0
3 -156 303 0
-67 -193 -339 0
70 -270 -371 0
66 -100 374 0
-70 -360 -365 0
55 -92 -229 0
-111 170 384 0
68 179 226 0
7 -96 -383 0
60 -303 455 0
-125 288 475 0
57 225 371 0
-116 -136 -257 0
-37 -95 -259 0
11 86 -366 0
188 -221 -350 0
-141 267 374 0
-14 -92 -142 0
135 -401 -407 0
192 -200 -267 0
3 14 -445 0
-89 -188 254 0
31 -149 267 0
-128 -230 368 0
25 90 390 0
-32 -289 460 0
19 136 -376 0
-76 -192 302 0
95 -203 237 0
-1 15 -220 0
109 263 -498 0
-18 -239 -357 0
96 -296 326 0
292 -329 466 0
-168 -210 287 0
-172 484 494 0
196 464 -467 0
346 -458 481 0
227 -265 -291 0
-27 235 387 0
-142 146 342 0
59 379 402 0
72 -330 -490 0
59 113 -150 0
98 192 442 0
222 370 418 0
231 397 -418 0
108 -153 226 0
246 272 408 0
-257 294 429 0
-98 164 -401 0
-66 224 341 0
12 240 309 0
-192 432 -482 0
310 -424 -464 0
221 -237 -254 0
21 249 396 0
314 420 -421 0
-51 -170 -257 0
68 322 -338 0
-90 217 231 0
110 -215 401 0
-72 115 -422 0
60 277 -314 0
-34 -296 305 0
-20 -434 -492 0
-51 -371 380 0
-155 -179 -343 0
-247 284 -343 0
-2 -266 -479 0
-41 -88 390 0
-177 378 -475 0
260 424 -432 0
40 93 302 0
-211 278 424 0
-32 191 263 0
-56 302 394 0
-165 -171 379 0
71 390 -487 0
199 228 -287 0
-5 -17 407 0
-88 111 335 0
33 -192 434 0
-249 257 -423 0
-267 326 -354 0
-169 -231 238 0
-22 349 366 0
57 145 444 0
-83 302 404 0
-350 -398 429 0
-359 424 459 0
128 141 -444 0
26 -66 126 0
-111 -139 157 0
57 -142 -294 0
12 -405 -490 0
45 341 -448 0
-277 -332 394 0
17 -75 342 0
-31 -143 435 0
52 -345 -362 0
101 -314 -491 0
-119 127 334 0
113 -127 263 0
-138 -260 -476 0
26 148 409 0
110 158 -244 0
-269 -322 385 0
-252 403 450 0
-135 -408 428 0
-162 -351 -364 0
44 -198 405 0
-30 -334 -452 0
-34 -65 -334 0
132 164 348 0
-295 313 375 0
343 420 456 0
340 351 410 0
102 341 -499 0
67 -383 -495 0
-323 469 -475 0
-48 -125 275 0
69 -157 461 0
-169 -284 285 0
330 -432 -490 0
113 -201 313 0
397 443 475 0
60 -345 439 0
-41 68 105 0
100 149 278 0
-43 -317 354 0
-119 -416 -445 0
134 -265 -393 0
211 245 432 0
190 358 -452 0
96 376 -467 0
98 143 184 0
-245 299 486 0
-43 161 -175 0
-158 -205 455 0
79 -134 -314 0
-5 -28 496 0
-404 -469 -485 0
-307 -311 -414 0
-4 136 -377 0
-138 -205 363 0
140 392 -398 0
161 375 480 0
-37 355 402 0
-26 -271 -448 0
326 -417 419 0
-104 264 -393 0
82 -88 200 0
56 72 274 0
83 417 474 0
189 355 424 0
-52 263 -430 0
-48 158 -408 0
-188 372 416 0
-3 234 336 0
17 -425 478 0
159 -189 -241 0
10 -356 433 0
-11 372 394 0
-81 99 289 0
39 -44 -273 0
-249 -346 -464 0
-138 288 -483 0
-73 137 -421 0
154 415 -490 0
57 80 451 0
-239 313 387 0
-54 173 297 0
25 240 273 0
51 173 245 0
-68 79 104 0
-57 338 -457 0
-119 -182 -333 0
-266 271 370 0
-205 -296 -445 0
169 242 295 0
-52 200 312 0
-76 258 333 0
-3 -264 -348 0
135 256 -337 0
41 -212 380 0
-43 -155 -354 0
343 -376 476 0
-170 -337 -478 0
-151 -182 328 0
-82 392 474 0
-233 283 -428 0
79 -144 315 0
19 201 474 0
27 -320 472 0
58 392 469 0
-80 -460 -477 0
150 257 -392 0
-81 160 452 0
186 -263 -302 0
7 -149 256 0
-157 -421 449 0
-56 67 410 0
150 -302 -470 0
147 -240 -329 0
31 -197 -200 0
-146 -199 440 0
-136 -237 -372 0
-40 -224 -232 0
399 -446 492 0
-26 164 -205 0
-47 -59 116 0
70 -169 224 0
-88 -270 -456 0
51 235 455 0
-116 -225 362 0
-131 -198 283 0
-132 -149 155 0
-45 -256 -287 0
-210 258 -286 0
-360 -396 -450 0
-126 250 -313 0
139 254 -492 0
191 334 -359 0
353 418 470 0
-224 346 349 0
212 267 -279 0
36 -269 -355 0
-148 -256 498 0
-171 -248 -350 0
-269 -286 -345 0
174 -448 -453 0
19 -353 389 0
-3 -392 -500 0
27 -179 -413 0
-45 -476 -486 0
301 -369 -400 0
-358 -415 433 0
-239 -389 452 0
