c description: Random 3-CNF over 500 variables and 2129 clauses
c generator: CNFgen (0.9.6)
c copyright: (C) 2012-2026 Massimo Lauria <massimo.lauria@uniroma1.it>
c url: https://massimolauria.net/cnfgen
c command line: cnfgen randkcnf 3 500 2129
c
p cnf 500 2129
-47 -79 -333 0
-6 -39 -52 0
104 -226 -282 0
80 149 325 0
-51 197 431 0
129 -131 -256 0
75 -95 444 0
-213 379 384 0
-46 -176 497 0
45 -177 373 0
-26 -364 -457 0
-38 101 379 0
83 202 -296 0
-8 -101 180 0
-156 255 356 0
202 266 -393 0
-221 -285 448 0
-72 -376 -451 0
196 -432 -451 0
-147 -426 496 0
-60 -129 313 0
42 327 488 0
-44 141 -182 0
-93 -94 -262 0
-89 -135 365 0
117 -189 196 0
-337 363 -489 0
41 292 -328 0
49 114 -253 0
-20 387 -427 0
-4 -371 -433 0
-73 -170 -208 0
20 -52 302 0
43 -88 478 0
44 54 -255 0
250 -321 355 0
-63 73 -100 0
213 243 430 0
9 -184 -275 0
31 268 453 0
309 -407 408 0
65 107 -405 0
49 76 -230 0
-185 -303 327 0
-287 -331 454 0
27 -87 -319 0
-177 -290 -332 0
206 272 315 0
125 -355 424 0
274 363 446 0
-12 81 -207 0
-275 -391 -490 0
-84 -89 329 0
93 210 278 0
378 -442 469 0
-191 -278 -329 0
280 467 490 0
-13 113 212 0
69 140 -179 0
214 400 -473 0
193 199 413 0
-234 -385 -499 0
362 -365 -445 0
-29 -262 -477 0
-44 -60 76 0
-140 370 426 0
129 -390 402 0
50 -258 312 0
12 290 470 0
153 242 480 0
-17 -174 -449 0
342 -462 -481 0
69 -200 -419 0
32 239 -281 0
-117 -468 477 0
-230 -266 -318 0
235 424 -476 0
129 -212 247 0
278 298 -309 0
60 62 -284 0
177 197 294 0
-234 386 -454 0
-9 214 225 0
285 338 387 0
244 306 -369 0
100 236 -335 0
73 218 -242 0
234 -243 339 0
100 283 293 0
-234 387 415 0
-95 -397 -499 0
229 -450 -497 0
-5 -56 -491 0
-93 -147 179 0
-116 280 -384 0
-260 -424 458 0
91 -130 402 0
73 258 286 0
-236 352 -398 0
309 431 -482 0
193 -216 218 0
-68 -146 207 0
25 147 310 0
90 175 318 0
-99 335 431 0
-53 -413 422 0
-208 -246 264 0
63 363 398 0
-168 368 -493 0
-64 133 218 0
245 -250 462 0
33 134 201 0
-31 161 -375 0
14 78 322 0
133 190 406 0
176 187 241 0
-12 -103 410 0
-4 40 -192 0
99 190 407 0
-141 152 214 0
52 104 -405 0
3 -47 457 0
164 -260 -402 0
3 288 -289 0
-131 216 232 0
194 -254 -497 0
-461 -462 484 0
-375 386 -443 0
-217 -296 397 0
-171 370 396 0
139 235 353 0
270 -323 -458 0
224 389 -451 0
30 -367 406 0
-13 -19 -211 0
95 -235 384 0
-84 114 267 0
76 -173 -200 0
11 -80 -392 0
-224 -322 -423 0
171 -178 207 0
-139 237 -336 0
160 -350 -361 0
80 -141 -426 0
-100 309 -452 0
-75 -187 -324 0
-34 -114 -460 0
260 364 -485 0
149 -358 486 0
-249 -385 -397 0
43 -198 297 0
139 -243 -349 0
-43 -395 404 0
337 -415 485 0
30 -253 -285 0
35 69 176 0
-173 -263 450 0
17 104 172 0
9 -64 -140 0
-185 401 423 0
28 -265 -268 0
-132 -420 -429 0
-159 166 -403 0
136 -239 275 0
329 -357 378 0
-5 -60 -440 0
-96 -269 -290 0
65 223 483 0
-243 -290 315 0
-76 -199 281 0
-72 326 489 0
86 263 407 0
-31 60 -169 0
-45 -185 -390 0
-147 -182 -205 0
-98 -105 133 0
-164 -211 253 0
-180 223 471 0
233 -242 -386 0
-197 208 467 0
32 -179 -262 0
-88 -263 -393 0
103 -194 433 0
59 127 -282 0
153 376 433 0
135 -306 389 0
-75 108 134 0
-234 369 -433 0
-5 -18 190 0
79 -332 403 0
256 337 423 0
-93 363 412 0
148 375 466 0
142 -173 481 0
-112 192 -367 0
-131 -245 -322 0
34 -381 -420 0
99 -329 439 0
-41 -86 -419 0
-17 -226 376 0
18 -212 -331 0
-83 135 -185 0
17 -172 314 0
165 -376 -499 0
-22 -101 367 0
-51 -167 250 0
-53 -63 -211 0
132 -209 493 0
-53 58 -106 0
13 35 222 0
251 341 427 0
-302 -374 376 0
-81 -142 -451 0
59 -205 -240 0
-114 203 -361 0
-65 78 121 0
63 -139 -360 0
353 -422 449 0
-77 -116 -185 0
283 458 -473 0
88 -91 155 0
-91 295 -462 0
38 -84 495 0
-11 71 -448 0
9 86 219 0
253 -335 -365 0
-20 -389 -407 0
211 -283 497 0
66 -261 -469 0
-122 238 -292 0
-203 -300 373 0
47 -161 299 0
142 -287 448 0
112 197 -405 0
4 -125 -357 0
201 -256 351 0
-70 190 400 0
-189 -198 288 0
-165 -241 -288 0
5 157 -190 0
26 137 265 0
-170 451 -469 0
35 124 -279 0
4 -225 -354 0
158 -285 359 0
235 263 -396 0
40 -363 432 0
65 -312 -446 0
-34 456 460 0
58 110 -321 0
-13 150 -372 0
293 -366 482 0
-178 -187 362 0
74 -82 -260 0
-16 -108 115 0
-235 -260 361 0
-125 -283 306 0
1 241 374 0
-246 339 374 0
-65 205 231 0
133 144 423 0
10 -41 482 0
-34 -151 -314 0
-279 333 440 0
-29 105 388 0
-198 -409 -478 0
-128 210 -484 0
116 119 322 0
173 -274 -461 0
-85 117 -156 0
147 398 -400 0
92 -126 231 0
-228 383 -386 0
252 -308 455 0
222 317 355 0
77 117 -154 0
-13 -364 -372 0
327 -411 -488 0
174 252 329 0
-125 132 324 0
170 275 -314 0
36 -65 272 0
-99 148 498 0
-51 -252 -390 0
-15 -333 404 0
-66 -108 250 0
-298 -353 480 0
241 -382 384 0
-144 283 -294 0
126 -301 -349 0
-17 -402 -450 0
-293 -360 -453 0
160 165 -210 0
101 362 -460 0
-122 -190 377 0
-45 261 -308 0
-15 -297 369 0
-285 -414 -415 0
8 232 -327 0
271 -356 -407 0
-219 372 -419 0
129 -423 -448 0
49 278 389 0
-175 346 409 0
52 -67 414 0
160 -294 323 0
-228 -365 -392 0
183 311 487 0
130 -240 -422 0
-354 -366 469 0
-334 -408 -489 0
-259 396 466 0
-236 388 -473 0
330 355 472 0
-90 -267 386 0
-22 -217 473 0
122 371 387 0
13 -63 315 0
104 391 412 0
106 227 238 0
99 -120 359 0
-43 -121 -462 0
276 -375 385 0
-46 -256 481 0
-82 252 479 0
-44 233 -426 0
144 210 -455 0
-59 -76 -409 0
314 406 472 0
31 284 428 0
-118 247 -402 0
210 -304 399 0
52 191 497 0
84 -182 321 0
24 -69 -500 0
-70 106 -129 0
-142 383 450 0
-195 -276 -298 0
-241 -284 379 0
64 133 440 0
159 257 -264 0
221 -331 427 0
103 250 366 0
204 -259 -430 0
116 338 -497 0
-79 210 272 0
16 -111 360 0
-298 304 331 0
218 -396 415 0
-232 -253 -334 0
-134 294 -452 0
-196 -392 -401 0
-17 55 -319 0
-8 195 -233 0
-202 -222 408 0
328 -350 -448 0
-20 -185 -289 0
95 97 -259 0
-58 101 141 0
-67 -121 223 0
67 -425 -459 0
159 170 -493 0
226 237 -307 0
-313 386 -406 0
-156 -253 -497 0
-6 -45 -470 0
-211 -339 -495 0
275 302 -410 0
-253 269 296 0
-194 248 481 0
-44 57 -433 0
69 -83 -476 0
50 117 -230 0
20 -68 -306 0
250 296 -466 0
209 -211 383 0
88 -222 472 0
-86 -141 388 0
175 -310 -327 0
5 -61 293 0
52 -334 -496 0
-307 -462 -486 0
-136 347 487 0
127 -329 -428 0
185 -371 404 0
45 201 233 0
-109 155 225 0
253 309 -337 0
-99 304 -341 0
210 254 -389 0
164 -281 -497 0
134 -351 -458 0
55 248 -498 0
-24 146 407 0
-317 327 340 0
5 23 -481 0
51 -144 321 0
-119 -228 -451 0
170 287 -318 0
66 -138 396 0
80 -402 -437 0
-12 214 -228 0
-79 -327 -362 0
-10 58 457 0
-262 400 -411 0
41 -254 -425 0
-248 -340 345 0
-73 131 336 0
-95 279 442 0
286 351 494 0
215 287 -399 0
17 -227 -254 0
-76 -165 196 0
-166 -188 404 0
5 217 -399 0
50 113 153 0
102 159 268 0
165 -275 -318 0
-188 -390 413 0
-40 -244 -471 0
-1 12 -280 0
-158 313 315 0
56 456 476 0
241 -344 380 0
-71 -75 -204 0
12 -93 -480 0
-5 -34 72 0
-8 331 462 0
-60 -248 389 0
-56 -346 430 0
-163 -460 -477 0
-154 -287 -360 0
-70 290 300 0
154 -355 410 0
-68 -153 233 0
22 -221 424 0
-195 434 450 0
232 240 259 0
6 -151 -210 0
-179 248 -425 0
-152 -299 -331 0
-38 123 396 0
-187 440 -478 0
-140 -398 -402 0
160 365 -440 0
67 -315 -384 0
292 430 472 0
327 -406 481 0
-212 -427 469 0
198 407 455 0
56 -66 221 0
304 -437 439 0
-62 -186 -407 0
-9 -96 203 0
-61 187 -217 0
128 -198 308 0
-105 -406 -443 0
10 162 -248 0
81 -292 471 0
-23 -56 -429 0
361 394 -493 0
164 220 345 0
29 -279 -361 0
-152 206 249 0
289 293 -471 0
112 -316 -460 0
91 -396 436 0
128 207 -348 0
-252 -392 -431 0
-33 162 222 0
45 419 -426 0
-39 306 363 0
153 283 -436 0
-242 339 366 0
26 148 -355 0
-34 132 -230 0
20 194 302 0
115 -317 390 0
4 -277 -358 0
104 152 -361 0
-8 112 -188 0
15 -121 445 0
-21 66 -77 0
-233 399 -412 0
-89 -228 464 0
-396 -399 -496 0
117 -138 -443 0
112 -357 -442 0
272 -318 349 0
-89 273 342 0
359 -407 419 0
-47 389 -436 0
-56 -230 421 0
81 170 326 0
146 -293 395 0
132 -249 -385 0
-44 -436 -499 0
-46 -73 -483 0
189 -221 261 0
-139 301 -407 0
-138 -397 407 0
-294 356 379 0
114 202 -325 0
-91 -192 -336 0
28 -37 267 0
-54 -300 -401 0
108 219 -283 0
18 -223 417 0
-202 -227 -239 0
-30 391 403 0
-34 -234 243 0
121 388 443 0
-101 -420 -430 0
-43 187 -473 0
92 170 257 0
-289 296 485 0
-75 -309 -436 0
27 -62 219 0
55 276 456 0
72 -193 -254 0
-193 237 -348 0
-248 -469 -486 0
-349 415 488 0
-293 -409 413 0
49 85 321 0
-340 366 -449 0
-159 463 -466 0
296 -298 -477 0
60 -204 274 0
-126 282 302 0
238 -334 -357 0
-69 -460 487 0
2 240 388 0
-89 -347 392 0
-79 283 -365 0
-150 328 466 0
62 224 380 0
111 369 -387 0
80 399 409 0
-292 300 -441 0
-4 323 472 0
-229 288 455 0
-109 146 440 0
284 288 383 0
-115 185 -430 0
10 -409 460 0
75 91 93 0
34 104 341 0
-334 382 -402 0
-8 -371 -405 0
-143 -373 379 0
-279 434 -465 0
39 -167 218 0
-90 132 202 0
-54 221 -429 0
-87 -248 -465 0
-41 -337 408 0
-227 235 -271 0
53 302 -355 0
151 -279 406 0
70 -174 372 0
-112 314 -432 0
338 -422 479 0
131 -151 -155 0
-3 195 -255 0
168 -448 454 0
-59 181 434 0
-304 320 462 0
83 -211 411 0
26 -139 -179 0
-13 434 -497 0
-216 -278 472 0
12 397 431 0
27 -346 429 0
97 -131 -494 0
56 123 -275 0
125 -196 378 0
193 -228 -313 0
150 -356 -494 0
-280 -282 320 0
64 122 452 0
13 170 -265 0
-5 -185 316 0
-247 -305 376 0
-171 458 -461 0
-123 151 -413 0
-127 -144 -375 0
330 -343 441 0
72 169 -474 0
-199 247 259 0
-79 -190 410 0
-44 -297 337 0
-298 -426 -461 0
163 361 -447 0
244 356 -419 0
355 -372 401 0
-40 -322 -343 0
-132 -256 -465 0
-193 242 -459 0
-35 101 328 0
72 93 416 0
-128 -411 -422 0
73 81 -101 0
-179 -223 490 0
-60 -268 -438 0
-35 -42 -443 0
-72 -282 288 0
13 267 -368 0
-9 22 123 0
-235 427 -461 0
196 301 -362 0
92 -103 364 0
-76 -191 -223 0
-137 -199 -463 0
56 154 396 0
-31 202 -224 0
-6 68 -136 0
161 203 -280 0
-20 267 366 0
-74 279 437 0
175 -262 -277 0
15 -63 282 0
127 265 333 0
22 41 -447 0
64 -198 216 0
-388 414 -456 0
303 -350 356 0
263 -415 496 0
-174 -182 276 0
179 -430 -473 0
166 256 353 0
27 -212 -259 0
-114 -210 460 0
-56 -128 182 0
110 -247 -422 0
-352 -406 487 0
-27 105 -274 0
-237 386 -464 0
176 390 493 0
274 374 -485 0
121 -213 -223 0
32 -92 -114 0
-43 -449 -478 0
146 151 218 0
370 -414 464 0
98 278 327 0
-320 366 -422 0
-75 237 -347 0
265 -327 364 0
-157 373 -499 0
-64 -269 494 0
271 -294 319 0
-343 345 -403 0
-359 411 -430 0
135 -197 266 0
-82 -301 414 0
17 -30 315 0
174 -293 -500 0
-200 -229 -493 0
-1 35 -78 0
71 224 -361 0
-65 118 -488 0
70 196 -338 0
47 50 -433 0
180 249 -355 0
61 -426 -473 0
337 434 452 0
10 55 -279 0
-49 -315 318 0
339 -431 -491 0
-66 471 -476 0
9 -254 267 0
-90 227 -313 0
-70 -209 -394 0
-79 -209 409 0
314 371 430 0
-144 -160 220 0
-9 77 -479 0
-79 275 -303 0
-66 -223 352 0
-174 -184 225 0
214 250 310 0
221 244 -396 0
222 236 -460 0
-53 -62 -98 0
232 -369 -469 0
-25 234 482 0
64 -194 288 0
289 -476 481 0
33 422 -456 0
15 -183 -211 0
-130 158 262 0
217 298 -485 0
-23 -174 403 0
-166 -177 -369 0
-45 105 -401 0
174 -294 -446 0
-13 -125 -339 0
-223 -324 -415 0
-91 -155 -255 0
60 -138 469 0
117 189 460 0
342 -492 498 0
-85 344 -409 0
120 307 361 0
36 -280 -341 0
92 349 -432 0
-7 -417 -495 0
-282 371 427 0
-56 237 -317 0
-119 175 -468 0
-196 -209 395 0
-137 232 411 0
-67 229 287 0
-138 384 474 0
16 -46 499 0
-71 129 452 0
123 134 -167 0
-23 430 465 0
-285 296 388 0
-77 -84 390 0
151 180 -483 0
-25 -124 -338 0
67 403 -427 0
219 -227 -360 0
28 249 405 0
105 456 -480 0
171 -222 -247 0
43 -383 -475 0
-1 -305 -445 0
-131 -166 -386 0
-78 -245 -257 0
150 -179 -180 0
-7 248 -308 0
289 -294 295 0
31 -34 450 0
-37 174 402 0
-202 275 -361 0
-22 -401 444 0
-26 -101 385 0
-60 172 -480 0
-78 276 -293 0
215 280 417 0
-292 330 -471 0
-37 141 430 0
-151 -159 -390 0
-27 -393 419 0
-220 368 -407 0
-30 -68 -137 0
182 -367 471 0
-58 81 -105 0
-104 120 411 0
39 198 415 0
30 132 -337 0
-214 218 466 0
-110 -280 347 0
84 270 -436 0
-281 366 438 0
-34 142 298 0
216 -472 490 0
119 -137 -229 0
-147 176 -241 0
292 403 -416 0
25 495 497 0
182 -203 -451 0
-15 187 -321 0
-141 -249 362 0
-260 -366 439 0
355 -427 -464 0
-50 80 491 0
5 -153 412 0
-149 -291 357 0
-19 -94 -192 0
-98 -207 -494 0
218 243 -468 0
212 273 464 0
29 -292 -470 0
24 -48 -168 0
-261 271 476 0
-74 241 359 0
-228 303 337 0
75 279 416 0
9 -420 494 0
-177 -215 382 0
-312 -405 476 0
-88 -423 482 0
-47 118 -303 0
-155 -170 233 0
257 -348 467 0
90 150 -181 0
102 103 -141 0
127 -296 358 0
66 175 -439 0
-317 -352 -495 0
206 -311 -374 0
-233 -284 495 0
176 186 317 0
27 -148 409 0
53 -77 97 0
40 383 386 0
-159 -278 408 0
255 -256 -401 0
-99 -149 281 0
-86 461 475 0
-105 183 344 0
-108 202 310 0
-306 333 -362 0
-190 -207 212 0
197 -281 409 0
115 -302 441 0
-82 -125 -326 0
-203 236 -349 0
63 -171 278 0
5 143 486 0
166 -266 454 0
-1 158 408 0
-59 -106 242 0
-1 -92 159 0
63 182 -228 0
-101 -134 -389 0
-81 -358 447 0
255 -258 -464 0
87 -346 380 0
-96 224 -432 0
72 -130 177 0
-51 -157 -290 0
108 -126 309 0
5 -63 192 0
65 153 -472 0
238 -391 -432 0
10 -287 -499 0
-46 288 -364 0
-270 -286 386 0
313 -377 -437 0
-70 110 -418 0
117 173 330 0
-53 184 -269 0
233 306 436 0
-37 -95 270 0
-118 298 -318 0
114 -389 -396 0
118 132 -326 0
81 112 -181 0
-21 279 436 0
84 -119 -206 0
1 83 262 0
398 -404 -438 0
-57 303 444 0
54 291 -351 0
-21 -41 458 0
-62 -170 -258 0
-22 -178 436 0
230 -453 484 0
-100 413 -457 0
-293 380 424 0
-152 271 -406 0
283 -428 -474 0
96 166 -457 0
-201 -246 -409 0
199 201 -241 0
97 439 -470 0
-261 360 421 0
-162 -193 -472 0
176 -357 476 0
78 -95 -373 0
227 235 369 0
40 -248 444 0
-183 238 -242 0
34 157 283 0
81 -106 152 0
5 -82 -356 0
-287 410 -436 0
121 -177 204 0
-5 45 -231 0
-54 -81 -222 0
-64 347 372 0
22 316 -357 0
96 -118 394 0
291 341 -346 0
-196 -209 435 0
-249 -382 456 0
-104 -252 337 0
-346 -445 468 0
70 117 -311 0
133 143 312 0
-129 312 -417 0
-32 395 -415 0
-95 165 -377 0
-133 204 358 0
-65 148 345 0
139 143 -404 0
51 90 -463 0
56 -136 -164 0
-140 -170 412 0
39 185 347 0
59 99 -447 0
-146 170 -429 0
-42 -74 191 0
-48 418 420 0
-30 -240 -360 0
218 -283 390 0
-34 48 167 0
-124 220 -394 0
-57 59 317 0
19 -26 -246 0
95 130 -207 0
207 -433 468 0
-191 -322 -423 0
92 -292 -425 0
-52 -78 382 0
29 342 -392 0
-277 -303 -481 0
-128 -217 448 0
-294 355 -366 0
30 240 -459 0
-276 363 404 0
121 -200 391 0
-33 65 185 0
-42 -167 -412 0
103 -158 304 0
239 389 498 0
107 -288 -337 0
-208 -336 391 0
24 -114 274 0
161 -178 -426 0
-18 134 156 0
-233 -264 311 0
51 -159 190 0
182 -231 398 0
-60 227 -438 0
-135 -141 -453 0
155 373 -378 0
405 447 483 0
5 -255 -453 0
-87 108 493 0
55 -166 309 0
-54 169 223 0
-20 -264 -357 0
334 -349 489 0
60 -217 320 0
-107 212 -426 0
-106 -167 -458 0
-220 235 498 0
24 -386 -419 0
-150 178 452 0
-35 258 -264 0
287 -456 495 0
80 434 -456 0
-267 332 -439 0
290 -355 -442 0
-23 192 375 0
78 371 401 0
-73 -228 274 0
-89 -322 -393 0
-24 -108 -482 0
141 -240 468 0
215 392 -498 0
-59 -204 -368 0
-371 398 436 0
34 -377 -481 0
188 -268 291 0
160 320 -406 0
-135 -219 -332 0
-47 80 381 0
-70 -330 333 0
231 257 -407 0
-42 337 372 0
-10 30 431 0
123 -164 256 0
114 172 283 0
-70 -213 491 0
-182 -343 -487 0
20 375 443 0
-259 -280 468 0
-119 165 -319 0
-196 -224 333 0
-26 49 -329 0
-130 447 498 0
-13 110 -372 0
103 162 -275 0
-72 -360 448 0
151 156 354 0
-156 240 -487 0
3 -426 459 0
127 -346 391 0
-27 -482 -485 0
85 -264 345 0
-72 -204 -464 0
-237 -410 -489 0
239 428 -481 0
34 -210 377 0
-233 306 359 0
204 297 441 0
-176 320 -439 0
94 384 -409 0
-121 153 359 0
94 -204 439 0
79 336 -475 0
46 -107 -489 0
-338 -378 -398 0
-52 -334 -374 0
10 50 -238 0
55 147 182 0
-10 423 477 0
73 -161 -349 0
13 197 439 0
-1 325 -396 0
-282 -316 -494 0
252 388 466 0
112 -176 351 0
128 365 431 0
-157 -408 429 0
-37 -152 225 0
-147 -187 306 0
-11 376 487 0
-93 -289 -353 0
113 -404 -430 0
146 -158 456 0
-224 -260 302 0
83 245 470 0
123 -282 477 0
55 115 -434 0
-55 93 292 0
40 -335 463 0
-153 -264 -267 0
-17 110 191 0
-229 -364 -459 0
24 211 485 0
-338 340 411 0
-139 453 -462 0
-373 -421 -475 0
-179 -208 -297 0
-235 439 -471 0
-157 -200 403 0
258 415 420 0
-124 355 410 0
-16 -51 415 0
-88 -129 -386 0
40 -258 -274 0
143 335 -360 0
-59 148 440 0
107 -229 306 0
-199 314 -470 0
-75 115 364 0
223 268 357 0
218 -228 -236 0
-8 -375 -411 0
-22 202 -427 0
89 210 -332 0
-147 157 -361 0
350 -425 -455 0
63 -236 -485 0
-195 -420 -445 0
-230 -342 -498 0
-51 -154 445 0
31 -193 257 0
-134 -380 -427 0
34 39 398 0
71 131 386 0
-46 -107 392 0
-134 -303 450 0
53 290 365 0
-21 -334 426 0
-18 -24 -52 0
39 42 -166 0
109 335 379 0
-42 -67 -421 0
89 -139 476 0
-159 -359 -394 0
-62 423 467 0
-49 -105 477 0
17 -152 -403 0
148 -436 449 0
135 -389 481 0
-230 -262 -416 0
419 -433 481 0
166 359 -493 0
-18 305 -371 0
9 -167 -353 0
-2 144 -358 0
-47 -186 -350 0
84 215 319 0
46 459 479 0
-254 354 498 0
92 -149 -163 0
-221 -326 -347 0
257 414 -482 0
122 -204 -424 0
16 441 456 0
-44 57 157 0
120 175 222 0
-69 -118 -140 0
9 78 119 0
93 158 -168 0
227 -392 -491 0
-342 411 -484 0
-204 -251 -321 0
-63 -250 -445 0
257 -260 -329 0
100 -211 -415 0
2 -31 -376 0
164 391 -474 0
81 183 -317 0
133 159 -494 0
35 381 -488 0
20 -327 359 0
-73 -469 481 0
-360 363 426 0
228 249 -389 0
28 -35 97 0
-89 -385 -438 0
253 273 -361 0
-65 -364 465 0
-13 -282 -339 0
-199 404 -411 0
267 367 -383 0
-27 79 180 0
124 282 -354 0
165 339 -388 0
-48 463 472 0
-139 -242 407 0
-75 -187 354 0
-3 -53 -279 0
-249 317 -359 0
-26 -88 295 0
-75 99 404 0
10 -55 -205 0
82 210 303 0
91 -115 460 0
-91 184 -339 0
14 215 -374 0
95 306 -448 0
43 252 -282 0
-174 273 392 0
114 405 455 0
-60 -344 459 0
2 -352 387 0
1 292 -471 0
-172 -391 -468 0
291 -327 399 0
36 329 -499 0
162 -228 -443 0
-59 171 -173 0
368 462 -470 0
-309 351 360 0
-14 297 -328 0
-147 204 211 0
-119 228 283 0
-2 -119 -410 0
-168 194 -392 0
-48 226 -447 0
-368 -445 -463 0
93 135 -473 0
-91 381 -469 0
137 379 493 0
-172 216 -308 0
-174 188 486 0
-98 376 458 0
-236 -258 477 0
-260 -363 -398 0
-166 -218 381 0
-275 -351 -395 0
-48 153 419 0
-297 335 -490 0
23 -75 -410 0
20 -71 -367 0
-20 -431 -440 0
54 -181 222 0
-49 238 -348 0
7 -10 -50 0
-22 -50 87 0
-78 -223 300 0
-26 -328 500 0
-112 -162 340 0
265 338 395 0
88 -147 -337 0
-59 -276 400 0
-107 212 217 0
-105 -142 -248 0
210 -257 -483 0
21 -55 249 0
140 -221 401 0
-115 -117 466 0
75 117 330 0
61 105 473 0
-29 -363 -491 0
70 75 286 0
-233 -329 381 0
-297 422 -458 0
-3 48 245 0
-78 208 365 0
-187 196 -467 0
54 245 -432 0
-218 -303 499 0
27 -151 431 0
-52 -386 -497 0
141 314 -417 0
6 57 -372 0
-51 -314 -444 0
102 423 473 0
-4 -232 -428 0
-84 -279 368 0
363 -449 462 0
-210 -383 486 0
-119 -244 465 0
47 -149 -456 0
-279 341 483 0
218 286 -487 0
27 246 -376 0
-24 -74 -363 0
-143 -407 478 0
-311 -315 441 0
157 337 473 0
184 -238 497 0
-126 172 -374 0
122 -226 -434 0
-82 349 500 0
-102 -137 -450 0
104 -203 245 0
51 -271 417 0
-186 302 413 0
-76 -105 254 0
-56 -195 -226 0
199 270 383 0
-211 483 487 0
151 371 -386 0
-280 -324 -411 0
323 461 -489 0
-172 -286 432 0
-42 -264 472 0
6 -21 -294 0
-12 154 -253 0
-59 -63 -475 0
-59 -292 -488 0
13 -53 -210 0
334 -354 -448 0
133 -230 387 0
-177 -211 388 0
157 247 297 0
-106 224 330 0
95 424 470 0
-313 390 -462 0
46 -402 -466 0
108 115 253 0
-334 -367 -451 0
-16 204 -460 0
-179 263 449 0
23 -71 -315 0
125 -226 -347 0
-254 -403 451 0
-84 389 -411 0
147 155 429 0
-94 -274 291 0
-59 -272 -424 0
-16 57 -157 0
22 86 -316 0
53 169 427 0
-145 -420 473 0
8 276 -282 0
-20 102 293 0
123 256 -464 0
97 177 -413 0
7 33 339 0
-224 -275 -289 0
-63 -146 -233 0
104 -114 369 0
341 396 435 0
-110 330 -390 0
210 434 -458 0
92 -254 -487 0
170 194 239 0
22 139 -266 0
333 352 -369 0
-272 -301 455 0
238 287 -387 0
17 -145 309 0
145 229 -375 0
393 426 444 0
-299 382 -472 0
22 241 371 0
-23 171 -336 0
333 -378 -441 0
-327 333 -453 0
297 368 -495 0
-66 -180 277 0
-317 -324 326 0
-145 -177 354 0
-211 266 347 0
-110 416 431 0
89 219 -235 0
20 -95 224 0
140 281 309 0
-45 327 -454 0
-13 43 -236 0
10 -255 -490 0
2 -334 455 0
-35 317 406 0
-9 88 -377 0
-110 -376 -477 0
10 76 422 0
-111 -271 -437 0
-172 -291 -301 0
157 -324 436 0
-45 64 94 0
-48 138 -468 0
281 -363 486 0
128 -178 383 0
344 445 482 0
-86 180 278 0
304 -350 399 0
-84 -269 462 0
320 -323 -374 0
213 -303 -339 0
4 231 349 0
199 -209 346 0
-71 360 426 0
-239 354 -467 0
387 -442 -466 0
-105 191 -487 0
-268 297 365 0
-12 -194 364 0
-25 -160 182 0
-38 -52 355 0
-250 -375 -460 0
158 -295 466 0
34 94 -342 0
415 424 -440 0
-66 -209 -377 0
-67 77 249 0
-42 -75 100 0
2 258 -402 0
94 -214 -383 0
-339 -475 -494 0
-17 -282 328 0
44 -149 -393 0
199 231 452 0
-217 -290 -328 0
-277 300 407 0
-6 -342 352 0
185 -269 -493 0
-14 94 -310 0
-38 193 -437 0
-53 205 -347 0
-6 163 233 0
14 -38 238 0
9 -474 489 0
23 75 -308 0
56 -199 -256 0
-31 215 -400 0
-235 326 362 0
269 281 -401 0
230 -252 -484 0
-82 -132 355 0
-13 101 391 0
-125 431 -446 0
322 349 420 0
40 -386 445 0
204 -329 -392 0
-196 -414 -490 0
-124 150 495 0
-36 -362 417 0
178 -329 -412 0
-224 -351 427 0
99 423 480 0
140 273 474 0
15 373 -386 0
203 -236 -317 0
141 -314 457 0
-104 -203 -471 0
156 231 434 0
13 261 478 0
-43 -337 -492 0
-9 125 299 0
-62 235 -298 0
-371 389 -444 0
-43 -56 -477 0
156 339 475 0
133 -329 -383 0
110 -396 467 0
-164 377 -419 0
-387 -400 -493 0
257 402 -482 0
10 -328 -395 0
-142 -147 -496 0
-31 395 -498 0
373 -403 -457 0
80 127 208 0
-79 148 -458 0
83 411 497 0
271 360 448 0
4 -42 -432 0
282 -305 431 0
-8 -117 450 0
35 325 457 0
252 313 316 0
99 -152 -360 0
-34 65 319 0
-71 -207 417 0
-64 -362 -374 0
178 -359 -466 0
-206 -250 -423 0
-172 -368 -499 0
-33 41 229 0
4 180 -424 0
-181 -314 385 0
-270 -404 434 0
8 132 300 0
13 -28 292 0
-193 430 448 0
-245 280 -395 0
-7 26 -301 0
-46 -241 415 0
285 299 312 0
347 370 -429 0
81 -82 -147 0
10 68 -395 0
-308 442 443 0
96 234 -473 0
-49 -81 293 0
43 -66 98 0
-3 203 419 0
33 113 374 0
182 224 -264 0
-36 -270 316 0
196 -320 491 0
-55 371 -483 0
-112 -139 458 0
-40 -54 202 0
-231 277 499 0
320 -377 469 0
-134 -325 -374 0
92 -130 167 0
-46 -228 373 0
-21 83 -112 0
-13 -165 340 0
379 430 498 0
-60 207 -484 0
-187 -405 413 0
-12 57 76 0
209 -434 -495 0
121 -296 -364 0
-13 -80 294 0
-64 -334 -379 0
136 -176 410 0
132 -311 392 0
40 334 -385 0
-251 -355 424 0
38 -282 491 0
-76 304 486 0
-244 274 326 0
-166 -445 498 0
-136 -280 357 0
-123 -483 498 0
-72 424 -467 0
-171 248 469 0
-42 300 -420 0
30 -59 -475 0
-111 234 248 0
49 -193 -342 0
-89 -161 -474 0
356 371 439 0
-9 28 199 0
172 191 245 0
272 327 -454 0
-298 -370 -431 0
-76 322 -363 0
77 -377 -427 0
162 166 -360 0
228 254 -395 0
-304 338 496 0
-152 255 437 0
-180 -181 -239 0
-95 -402 -419 0
91 -166 -293 0
135 156 -343 0
-165 -187 -317 0
301 -322 382 0
192 -342 348 0
246 322 -325 0
62 376 471 0
-156 -205 -303 0
-16 -34 245 0
-191 -244 -358 0
4 -107 -179 0
330 -457 485 0
18 -245 338 0
3 -149 -468 0
317 436 -449 0
81 -196 415 0
122 -249 439 0
63 153 248 0
-227 -497 500 0
116 271 -406 0
318 380 -405 0
60 -82 247 0
74 222 -315 0
-52 -54 458 0
-17 25 -237 0
-289 -297 469 0
-2 -250 392 0
12 54 165 0
-206 -325 428 0
-265 -343 435 0
61 117 -344 0
-88 251 -291 0
90 212 -282 0
123 -333 383 0
365 368 -454 0
-153 220 291 0
-49 273 297 0
112 -275 -309 0
-325 338 403 0
25 -472 476 0
-1 409 -461 0
34 190 -282 0
102 240 386 0
-56 125 200 0
1 6 -177 0
-115 -300 -479 0
67 -292 473 0
-198 -263 -492 0
-113 423 -487 0
-191 207 295 0
41 151 315 0
388 462 477 0
233 310 386 0
75 264 417 0
108 397 408 0
295 -423 -439 0
-418 -458 -479 0
-73 146 363 0
-176 182 -369 0
-66 -327 474 0
-36 230 245 0
-37 216 374 0
99 -295 452 0
97 108 -222 0
-56 -155 -265 0
32 129 -279 0
-120 450 461 0
-14 313 -392 0
288 -293 423 0
231 303 359 0
-29 -104 -105 0
368 378 -478 0
-247 -323 435 0
104 176 432 0
-377 432 -498 0
63 155 -187 0
15 372 406 0
49 -273 325 0
-158 -386 391 0
-200 231 -243 0
95 417 -420 0
-383 -397 -497 0
112 -295 -413 0
240 -458 491 0
36 -60 398 0
-22 150 295 0
306 -328 -460 0
58 183 240 0
290 -300 371 0
71 -124 -300 0
-107 -111 -279 0
-22 -122 -311 0
-230 234 -414 0
113 133 460 0
236 -283 -366 0
86 -87 240 0
-59 -275 -491 0
74 231 412 0
-244 378 -445 0
252 -328 488 0
-82 179 -350 0
4 -420 445 0
-167 -176 416 0
-41 -128 225 0
7 -221 427 0
43 -254 -310 0
390 -444 -469 0
-101 209 412 0
-190 -257 441 0
210 238 412 0
-63 69 -275 0
92 -166 -295 0
2 41 -380 0
121 223 374 0
-184 225 392 0
-186 -240 330 0
165 282 -285 0
41 80 169 0
-28 -69 -431 0
51 139 313 0
244 -343 485 0
-42 -210 453 0
-49 -146 403 0
140 407 -445 0
7 -73 -183 0
6 157 192 0
-380 394 500 0
185 283 -476 0
54 -182 -384 0
125 306 -481 0
-255 -388 442 0
275 -292 -411 0
-146 277 -434 0
-107 -459 462 0
79 -174 -360 0
71 -236 -436 0
152 213 413 0
82 -204 -497 0
-122 157 450 0
80 -217 -462 0
-88 305 -435 0
-2 -14 233 0
-62 -295 -306 0
160 -299 -398 0
229 -299 338 0
-34 -143 406 0
-239 -333 -465 0
189 -284 425 0
79 207 210 0
24 95 123 0
-6 -93 299 0
122 244 -382 0
-153 358 431 0
81 367 400 0
159 -467 494 0
-321 -377 -405 0
108 -337 369 0
-111 119 -497 0
36 -189 411 0
-100 -149 -345 0
9 -382 -406 0
24 -53 -91 0
120 -140 380 0
203 -299 -355 0
-124 -328 417 0
34 -46 -419 0
196 229 -370 0
170 201 -270 0
378 422 448 0
131 -425 433 0
70 321 -449 0
47 -302 -385 0
-405 -459 -481 0
-180 -445 468 0
324 367 -488 0
-42 -132 -481 0
-60 124 -237 0
27 -187 -395 0
-309 -321 422 0
41 80 -99 0
-316 -460 -476 0
-60 -237 -316 0
-31 -50 351 0
7 56 208 0
-177 351 416 0
-19 245 380 0
7 -52 165 0
90 260 -383 0
35 221 -378 0
214 -380 -454 0
136 -161 -442 0
153 -351 418 0
338 -376 387 0
59 65 -116 0
-177 -231 374 0
-166 -280 477 0
-16 177 -464 0
-25 280 -458 0
156 163 -419 0
96 217 311 0
63 -379 480 0
78 -204 472 0
194 -240 419 0
-56 435 447 0
-4 -84 -467 0
24 223 -255 0
292 -413 468 0
-167 -277 336 0
45 330 -337 0
-25 -163 -264 0
-305 -326 334 0
-104 -112 -153 0
-134 143 396 0
43 -324 -402 0
-109 -333 498 0
-132 381 483 0
252 -278 494 0
246 298 362 0
-110 -265 -297 0
-25 134 -417 0
-189 321 -409 0
26 -32 40 0
148 -181 -488 0
-17 -290 498 0
144 438 -448 0
-209 369 392 0
-194 -404 -474 0
-98 243 382 0
403 416 -460 0
137 409 -457 0
-201 319 362 0
37 -68 -283 0
96 -132 -334 0
189 301 -326 0
-448 456 -488 0
-196 220 -281 0
-48 -235 -376 0
-46 -225 -436 0
-118 291 416 0
66 162 -380 0
-32 -241 429 0
-94 -323 -391 0
56 -131 250 0
14 325 346 0
-403 -444 -447 0
16 -356 412 0
176 319 -402 0
-68 90 184 0
-77 145 268 0
-196 -260 465 0
60 254 -402 0
21 -209 421 0
91 -347 -452 0
-135 -260 -294 0
-122 -217 291 0
50 228 265 0
-78 -282 339 0
-13 -224 225 0
-48 258 -379 0
83 261 269 0
-165 -205 -475 0
70 -319 433 0
88 -238 249 0
88 -126 225 0
-167 -202 -449 0
28 -37 321 0
33 397 -483 0
-159 259 339 0
119 -181 443 0
-12 -225 453 0
47 185 -189 0
-13 -229 -389 0
65 183 -280 0
-118 -407 -441 0
-179 265 -308 0
-9 133 -246 0
-142 -220 -489 0
240 -318 495 0
-146 223 -322 0
67 -303 419 0
-86 348 420 0
-41 -142 -267 0
113 287 -298 0
246 277 -278 0
239 439 440 0
-173 -408 -448 0
-253 -428 -461 0
-76 -164 -477 0
-97 387 -420 0
-127 -142 218 0
188 424 463 0
-23 118 236 0
-146 -160 -487 0
2 -78 -266 0
9 -105 182 0
124 -273 -429 0
13 61 -205 0
158 -264 278 0
38 -267 355 0
4 -8 459 0
-66 124 246 0
-12 -49 244 0
21 383 409 0
-162 369 -397 0
68 144 -429 0
202 -274 295 0
-144 -217 -333 0
30 119 120 0
-99 221 -271 0
73 120 -384 0
94 183 249 0
51 436 493 0
372 403 -447 0
-281 -282 484 0
47 -128 -245 0
-30 -156 396 0
33 -131 145 0
-5 105 -289 0
13 134 489 0
-71 225 -434 0
-11 12 -223 0
-242 -322 342 0
-164 404 -444 0
459 463 -485 0
-57 118 -473 0
79 -90 -364 0
37 -280 -407 0
33 75 154 0
-246 354 -381 0
-27 -51 315 0
-40 236 -263 0
-156 -346 461 0
15 245 -383 0
104 -130 284 0
154 -222 -285 0
240 380 418 0
87 -171 -256 0
-81 -227 492 0
138 333 -399 0
11 -330 -359 0
-306 411 -433 0
183 249 399 0
-143 342 443 0
209 355 -395 0
35 218 -278 0
97 -151 -347 0
-80 103 -229 0
280 -474 -491 0
10 -48 421 0
181 303 -481 0
16 -38 467 0
-85 -163 320 0
-11 -38 246 0
-12 -151 -357 0
106 -125 -129 0
131 215 341 0
64 -65 152 0
396 -444 495 0
226 -400 -489 0
79 225 268 0
-69 304 423 0
-215 320 423 0
141 180 -461 0
-294 -374 -413 0
-46 104 385 0
95 -230 -338 0
243 249 -275 0
199 -347 -369 0
-12 -211 -397 0
77 -81 177 0
-231 242 -421 0
34 -57 372 0
-113 166 -327 0
119 124 -129 0
41 365 -419 0
-23 58 -281 0
-184 308 -441 0
240 305 482 0
100 -227 267 0
7 100 -317 0
-208 -384 -441 0
10 350 422 0
13 148 468 0
-39 317 -394 0
-37 256 -435 0
-41 67 500 0
-66 -104 400 0
-118 258 -471 0
337 372 481 0
-180 301 -470 0
-249 259 405 0
74 -162 292 0
83 281 -465 0
352 -394 409 0
112 235 445 0
-78 -99 -211 0
-83 -108 -170 0
-121 -249 -324 0
-169 258 -321 0
-116 -450 -470 0
-34 239 -356 0
-81 122 430 0
-38 56 -324 0
-188 198 -336 0
118 334 -462 0
126 -399 -454 0
-13 104 -174 0
232 -383 464 0
99 -135 179 0
-220 -294 -307 0
-42 -75 -441 0
119 -324 -486 0
279 304 -485 0
-83 -139 476 0
102 -223 376 0
-38 -142 233 0
31 -82 -257 0
20 153 -407 0
414 -423 -444 0
21 310 324 0
-4 -302 453 0
-109 -130 -494 0
-359 -405 -406 0
-325 -354 -378 0
-177 -289 405 0
-52 -113 -220 0
-270 -308 -315 0
9 -197 428 0
-231 -406 -426 0
22 -284 467 0
-180 -306 -427 0
92 -309 -358 0
83 -133 -342 0
-30 468 494 0
160 399 466 0
-33 287 -354 0
-190 -304 450 0
143 275 469 0
-143 355 465 0
382 -434 -453 0
-42 56 425 0
264 -338 469 0
64 -247 276 0
13 173 -354 0
196 257 447 0
-61 -193 -200 0
17 -56 416 0
-18 261 311 0
138 266 449 0
48 122 422 0
-37 -102 -121 0
70 -292 409 0
62 -212 317 0
-87 152 -267 0
-286 -335 -377 0
-155 200 -258 0
73 127 371 0
-11 -52 185 0
-93 -133 -247 0
-322 -415 -489 0
238 263 -376 0
-184 311 313 0
5 -93 312 0
-16 121 -375 0
-131 -151 238 0
-77 329 -448 0
-203 355 430 0
-264 311 -333 0
104 317 355 0
-241 284 407 0
-98 156 229 0
114 -259 463 0
-22 -314 336 0
128 -168 343 0
-45 345 371 0
-51 -272 457 0
-72 179 -460 0
-62 -321 431 0
-19 -209 -239 0
12 -82 317 0
-55 -222 -360 0
212 -244 293 0
158 183 448 0
128 177 364 0
23 -47 397 0
-74 85 -142 0
-7 343 -471 0
91 -442 -498 0
-54 -236 256 0
-179 -344 376 0
-159 -261 -384 0
-188 -247 -475 0
34 -188 214 0
-12 -251 400 0
4 25 263 0
-216 -371 -442 0
-179 253 423 0
221 222 -277 0
112 185 476 0
-111 -372 490 0
-60 -143 311 0
106 330 -489 0
-2 -108 -109 0
189 228 331 0
350 -380 403 0
-141 283 330 0
132 -217 -442 0
361 -370 456 0
-225 314 390 0
172 309 449 0
306 390 454 0
366 401 472 0
-78 320 336 0
83 -187 311 0
77 91 -400 0
-278 -395 499 0
-323 354 -373 0
-26 -35 -76 0
-163 -373 -432 0
311 -350 -491 0
-59 -75 262 0
-84 358 -380 0
-252 299 -328 0
-176 288 423 0
-134 -326 -337 0
-50 129 482 0
-173 388 -470 0
-35 320 -412 0
-16 22 -36 0
294 -400 -452 0
-234 -368 -387 0
195 -220 -427 0
-22 174 -419 0
187 -340 473 0
165 175 -203 0
-361 -381 429 0
343 -365 399 0
-21 -67 411 0
-127 -281 486 0
-63 200 270 0
-181 293 -449 0
149 173 221 0
-15 67 349 0
-42 -111 -318 0
-46 -150 -296 0
-158 -480 489 0
9 -169 417 0
7 119 -250 0
205 -388 492 0
140 331 -426 0
36 155 -353 0
41 181 -475 0
-270 415 -468 0
-269 -376 476 0
-191 396 413 0
-47 -64 -273 0
251 -363 -435 0
-250 -273 -359 0
171 -338 -366 0
-85 -294 -470 0
-112 468 489 0
135 -218 -471 0
-245 -439 490 0
-177 -308 382 0
219 304 336 0
-28 -33 -454 0
-303 -396 -458 0
314 -382 -427 0
253 -291 -358 0
-2 -225 -314 0
-160 218 456 0
166 327 -335 0
311 -428 -438 0
-30 -252 255 0
323 344 355 0
115 424 -473 0
-201 230 -410 0
161 -267 -324 0
-155 -290 -335 0
-81 193 -315 0
138 -251 -411 0
-170 -191 -493 0
229 -242 -383 0
-10 93 -482 0
-52 -62 -177 0
-40 252 -357 0
232 329 -484 0
13 -365 -431 0
-10 -47 209 0
141 311 -321 0
-49 -138 326 0
30 -465 497 0
10 -168 -203 0
-11 288 -399 0
-55 -157 294 0
49 137 -211 0
90 280 352 0
82 299 397 0
154 397 414 0
147 -177 224 0
-22 -199 469 0
-21 131 247 0
24 -49 377 0
-214 288 -311 0
-47 90 -446 0
-220 -289 368 0
43 -117 455 0
171 216 -467 0
226 391 -393 0
-183 -247 -282 0
242 -430 434 0
-95 428 496 0
-47 221 336 0
71 -101 322 0
70 -226 256 0
-198 -273 487 0
-141 -142 -450 0
-11 408 -440 0
-13 -403 407 0
55 -318 438 0
58 321 346 0
-15 313 361 0
-45 296 391 0
-279 390 498 0
-46 178 -227 0
-69 -211 -346 0
64 -231 345 0
-212 -240 -321 0
-233 368 396 0
3 36 -137 0
-241 -274 470 0
-172 -267 279 0
105 122 159 0
224 -315 393 0
145 268 430 0
15 312 -393 0
7 -156 423 0
-117 259 337 0
-65 -161 175 0
-262 -362 374 0
52 -175 -351 0
157 208 -303 0
34 35 206 0
-86 382 463 0
-27 58 103 0
18 133 305 0
61 226 394 0
-190 -235 -431 0
144 -361 460 0
38 41 82 0
356 -374 449 0
56 365 -446 0
11 114 172 0
98 317 -369 0
91 321 -475 0
-40 -113 229 0
