c description: Random 3-CNF over 500 variables and 2129 clauses
c generator: CNFgen (0.9.6)
c copyright: (C) 2012-2026 Massimo Lauria <massimo.lauria@uniroma1.it>
c url: https://massimolauria.net/cnfgen
c command line: cnfgen randkcnf 3 500 2129
c
p cnf 500 2129
196 -363 375 0
80 -115 -315 0
96 -340 399 0
-34 -126 -319 0
-82 -120 424 0
-130 153 -196 0
-198 -393 -435 0
297 -419 437 0
126 -274 402 0
-65 -69 -386 0
-87 -130 -273 0
-33 222 414 0
21 129 -324 0
83 157 431 0
-8 -228 -320 0
4 -35 304 0
104 123 270 0
113 115 282 0
346 -376 391 0
-20 24 424 0
-13 -166 -333 0
-158 -279 432 0
7 132 302 0
38 70 78 0
45 -250 -321 0
-127 303 389 0
-38 -86 -141 0
253 -323 -444 0
70 333 -402 0
-127 336 -340 0
-67 -80 427 0
-107 312 -374 0
87 -112 326 0
141 205 424 0
-73 -269 357 0
-10 66 430 0
-6 257 -355 0
234 -453 -461 0
-130 191 -475 0
4 -79 265 0
144 -161 392 0
76 -110 487 0
116 357 -457 0
97 263 -345 0
-63 396 425 0
167 425 483 0
-23 106 137 0
326 -352 -419 0
-130 -360 -481 0
-220 370 -399 0
16 -433 484 0
-58 124 -332 0
-149 342 375 0
-309 -451 -463 0
75 174 -489 0
125 -277 -345 0
-237 344 432 0
171 -255 416 0
-154 292 -299 0
174 -228 -233 0
-100 381 -406 0
-18 155 -469 0
10 -299 -404 0
279 299 -313 0
-54 286 -388 0
276 338 -419 0
47 -182 -348 0
130 316 466 0
373 422 -483 0
14 -35 -207 0
-27 356 -366 0
257 -289 295 0
-103 -213 486 0
-4 -217 -443 0
-29 74 -129 0
53 201 -337 0
-245 -336 -461 0
32 -157 -368 0
175 299 -334 0
-214 -331 367 0
-196 412 -469 0
-118 -296 -348 0
-174 -344 410 0
4 335 365 0
214 -395 -423 0
241 -277 -359 0
3 -320 422 0
-131 -141 -145 0
-128 -184 -257 0
190 -231 -340 0
388 433 -485 0
-48 457 -485 0
10 81 -272 0
-112 181 -358 0
23 -169 193 0
-9 -300 304 0
85 -128 -260 0
23 227 -350 0
-226 256 441 0
21 186 468 0
-266 367 492 0
336 -379 417 0
308 -410 -432 0
78 171 401 0
7 133 404 0
15 29 -270 0
52 81 -412 0
156 238 275 0
-140 190 492 0
-80 -183 -388 0
47 -196 305 0
-41 188 340 0
264 272 450 0
331 432 434 0
157 210 212 0
261 -316 -321 0
-62 -172 467 0
-245 -430 -466 0
-142 351 458 0
40 -392 499 0
102 179 -359 0
-326 393 -471 0
3 -274 350 0
40 103 -418 0
115 -288 -310 0
-141 202 -328 0
343 -386 -426 0
2 -127 -251 0
216 -222 322 0
-37 -317 -341 0
48 194 435 0
-330 -489 500 0
56 246 -397 0
-139 202 377 0
28 -360 407 0
344 345 496 0
-25 -211 380 0
-57 197 225 0
-268 -335 -436 0
-102 -256 -488 0
-43 -492 496 0
-103 -240 279 0
137 258 430 0
-25 -209 470 0
-57 -118 421 0
-191 -309 364 0
95 -185 351 0
135 -149 -170 0
96 177 -283 0
16 90 452 0
-64 -91 118 0
-178 235 -318 0
223 -379 430 0
-264 403 420 0
-174 309 -429 0
-92 96 -112 0
-55 319 344 0
-97 132 439 0
277 -283 383 0
363 -372 472 0
-26 243 -460 0
85 -95 412 0
2 221 392 0
-138 -398 455 0
-198 205 482 0
-156 -326 -447 0
102 125 -236 0
252 -370 -372 0
-95 -98 338 0
-105 -157 329 0
-28 -190 308 0
3 95 -326 0
-64 -270 346 0
223 240 -361 0
-86 -159 -408 0
-82 -135 -248 0
69 144 370 0
120 -327 332 0
-81 -184 302 0
-257 -311 -460 0
-98 -127 312 0
98 -216 -222 0
109 -110 193 0
222 -258 -457 0
3 97 -294 0
411 424 -437 0
6 11 292 0
20 -79 329 0
95 352 -393 0
-98 183 -488 0
25 -287 412 0
227 -235 283 0
-179 193 463 0
-148 -256 -398 0
62 -122 -254 0
-66 -172 366 0
94 114 495 0
271 -309 329 0
43 -234 267 0
77 -126 397 0
-117 164 -403 0
110 -305 -439 0
-40 -95 158 0
113 -402 435 0
129 -146 -185 0
268 344 -476 0
-78 -120 -416 0
-131 -144 289 0
-405 -425 -452 0
240 352 -370 0
370 -388 397 0
-154 322 462 0
-34 118 242 0
-274 -293 380 0
-160 382 -497 0
-25 -47 -424 0
-352 -388 -439 0
-233 273 465 0
-309 -344 491 0
83 -218 490 0
-33 92 -336 0
-153 -180 -375 0
-11 398 474 0
15 -189 -202 0
57 69 110 0
-120 348 484 0
-77 96 -308 0
29 89 -472 0
320 326 -499 0
-279 -307 396 0
108 -343 410 0
-191 205 -497 0
-151 -186 -290 0
-63 131 246 0
99 289 481 0
-115 -377 -402 0
42 143 256 0
252 -353 -355 0
152 244 445 0
47 -74 -142 0
56 157 -368 0
82 113 -135 0
-6 -203 -448 0
68 -249 499 0
214 422 435 0
-302 -414 -430 0
-244 481 482 0
-377 398 464 0
-24 -321 324 0
254 263 -319 0
-69 356 384 0
-199 252 380 0
-431 -432 -438 0
83 -365 490 0
465 477 -492 0
-206 209 380 0
35 204 -287 0
112 194 -465 0
-51 -368 -482 0
52 117 -407 0
-53 -163 302 0
118 253 -389 0
-111 120 284 0
-167 433 464 0
44 -225 -428 0
201 213 400 0
206 -271 -439 0
76 412 -479 0
-8 -249 287 0
77 157 448 0
121 -217 -399 0
-75 -85 -294 0
33 -279 426 0
92 -149 -489 0
-406 450 485 0
-100 -191 -398 0
201 -336 416 0
-51 80 442 0
5 -122 -242 0
-373 -428 462 0
-178 202 -395 0
-27 93 -346 0
17 -290 301 0
58 223 -493 0
-31 302 475 0
-85 295 -414 0
321 374 -397 0
74 79 -194 0
57 434 -458 0
-264 350 419 0
28 105 -336 0
-120 189 -299 0
204 420 473 0
195 -279 328 0
-294 -327 458 0
-211 -347 409 0
55 298 -319 0
325 -362 -418 0
59 86 148 0
124 153 178 0
189 420 422 0
35 300 312 0
-26 86 366 0
-220 -289 375 0
-8 271 -301 0
-55 -198 489 0
160 373 -427 0
122 -172 -475 0
-202 -342 449 0
36 98 472 0
-241 367 -388 0
-77 -219 -221 0
-52 234 -237 0
56 165 -479 0
92 260 -405 0
257 372 394 0
-42 -112 -346 0
-16 51 -154 0
72 -375 497 0
66 91 -237 0
132 148 194 0
125 319 -394 0
-20 226 -342 0
62 103 -125 0
-187 -359 -415 0
24 -131 362 0
-69 -293 452 0
6 -182 -204 0
-303 -408 494 0
46 -197 -316 0
56 58 -459 0
244 -348 -448 0
42 109 -129 0
-29 -275 -313 0
-21 -134 -295 0
-116 153 229 0
-85 -235 476 0
142 405 456 0
-142 152 227 0
77 -291 -318 0
-259 -351 -364 0
190 -326 -418 0
-88 182 -351 0
-369 378 427 0
-39 -325 372 0
-131 324 -362 0
-50 238 347 0
-172 -256 -380 0
6 288 418 0
208 343 -372 0
-57 -259 -319 0
110 -124 377 0
102 -199 369 0
-8 -448 473 0
-3 461 -462 0
-268 -275 444 0
180 426 -461 0
-176 -291 350 0
-79 159 -359 0
23 -34 388 0
109 168 -446 0
-253 -427 -486 0
-85 116 156 0
-339 417 452 0
336 -468 -488 0
98 337 -446 0
-58 217 -427 0
23 -335 484 0
-147 405 -485 0
126 -394 441 0
220 446 -467 0
-124 -249 478 0
-85 154 472 0
-254 376 479 0
172 -460 -476 0
6 125 147 0
-244 -326 331 0
-28 138 -360 0
-157 227 251 0
189 301 475 0
13 321 -473 0
11 342 406 0
40 -211 261 0
-225 -229 327 0
-86 -327 -366 0
-41 -168 -322 0
-89 313 404 0
-3 -46 -139 0
-2 232 -472 0
149 -235 -447 0
-150 -206 -295 0
-432 455 -471 0
-107 -109 441 0
-260 -308 -372 0
-18 72 -231 0
-95 320 -486 0
301 316 325 0
125 -386 -461 0
298 363 -479 0
16 -183 275 0
120 323 -390 0
165 -188 -369 0
-209 273 -318 0
395 411 -488 0
16 -257 -291 0
-193 305 -368 0
196 323 -364 0
-231 -438 -487 0
-149 -183 -307 0
-39 42 -498 0
199 241 331 0
300 -375 -390 0
68 -206 316 0
-135 -417 -483 0
-36 -230 -303 0
-44 -62 359 0
22 106 -322 0
-6 -108 -407 0
33 287 -296 0
250 -299 437 0
80 -101 333 0
-149 -250 -313 0
-78 93 255 0
-244 325 -481 0
-158 238 -286 0
-97 -267 -281 0
-18 -250 -253 0
-44 67 359 0
76 -187 359 0
-177 367 -441 0
131 -143 -435 0
108 180 -369 0
-296 341 -461 0
-142 165 284 0
-35 45 245 0
153 224 -329 0
222 -462 -468 0
-150 248 -498 0
46 53 -162 0
-85 118 129 0
-5 -76 92 0
-396 -411 -446 0
-95 153 -271 0
-70 -471 472 0
31 337 -422 0
78 125 226 0
117 255 -341 0
-210 420 445 0
-55 66 -110 0
5 190 238 0
-124 261 497 0
19 213 -254 0
102 -221 237 0
58 -367 439 0
-226 -347 394 0
109 -367 449 0
138 327 -352 0
-144 -251 458 0
88 228 -425 0
15 110 278 0
-94 -231 -251 0
-189 -297 448 0
-223 -322 -459 0
120 165 -352 0
133 211 269 0
17 -210 -220 0
-94 337 -417 0
22 183 -489 0
120 248 -408 0
-85 -95 285 0
46 -350 -383 0
-87 -296 -495 0
-48 173 455 0
45 -267 270 0
156 -272 373 0
-128 -160 -327 0
-44 57 -315 0
11 -210 487 0
-154 -247 342 0
32 283 -447 0
-287 292 312 0
-51 172 -355 0
-204 -206 393 0
208 317 383 0
205 -239 246 0
-201 -253 -338 0
-274 -452 -453 0
-250 388 -463 0
105 197 -274 0
-15 -200 -490 0
-177 -318 359 0
118 -120 444 0
45 157 -161 0
-196 343 -473 0
-88 342 496 0
216 -272 -458 0
-8 138 434 0
157 363 375 0
16 294 -460 0
-23 266 365 0
27 -65 252 0
-100 -262 332 0
-74 -263 448 0
-43 -261 -498 0
-32 -368 -422 0
-143 335 337 0
179 -281 448 0
79 -251 -479 0
-53 -98 112 0
127 -241 348 0
139 233 -411 0
-216 -273 455 0
-160 411 461 0
37 -348 454 0
28 -131 -263 0
-32 285 -350 0
47 100 291 0
80 -418 436 0
-346 348 475 0
-51 91 -268 0
9 -181 491 0
102 192 -304 0
-256 -337 -450 0
-101 377 426 0
-39 248 -317 0
-141 362 389 0
-153 -305 -379 0
-146 -316 375 0
28 -343 346 0
171 -350 413 0
207 217 493 0
-163 265 377 0
-74 245 447 0
138 293 313 0
-158 352 -475 0
209 -237 -245 0
-128 -129 408 0
174 -231 -440 0
-308 -366 395 0
54 -161 -235 0
-22 261 -308 0
-121 384 447 0
-216 336 -450 0
333 373 424 0
6 138 372 0
41 -356 -460 0
-268 409 491 0
127 -275 417 0
146 266 421 0
19 -79 -352 0
-144 301 488 0
-239 -341 438 0
265 -298 378 0
-65 -304 -322 0
-26 56 318 0
-234 -344 426 0
150 -185 -360 0
229 -273 306 0
182 258 -350 0
156 -250 386 0
-131 -250 -365 0
205 228 -424 0
-23 153 429 0
-7 -378 -495 0
208 -376 -417 0
-27 -65 -299 0
-143 161 -348 0
-112 259 -398 0
-35 55 -249 0
-81 -111 -299 0
-25 35 -236 0
58 -400 495 0
51 354 355 0
163 -233 -261 0
-38 235 -294 0
-38 -205 298 0
-113 -204 432 0
99 155 393 0
-138 236 461 0
48 -127 -160 0
-19 -360 -379 0
-75 -422 493 0
-180 -266 482 0
123 -242 423 0
-34 -59 -297 0
79 404 422 0
189 -253 -490 0
-160 212 -269 0
-37 156 405 0
-83 -236 -494 0
-325 -411 -415 0
-96 -333 481 0
175 -179 -326 0
61 243 266 0
-213 299 439 0
8 -230 484 0
28 176 345 0
118 202 -281 0
131 -216 499 0
278 -336 -390 0
-79 -298 -353 0
-373 -474 478 0
-15 246 -422 0
-130 -147 395 0
66 -103 474 0
-48 80 320 0
-117 291 -331 0
70 276 354 0
30 -96 346 0
42 117 127 0
-16 -363 -372 0
170 312 -408 0
61 173 -253 0
146 -195 307 0
-232 241 -418 0
-7 94 284 0
67 -286 -325 0
290 394 448 0
-24 -33 -77 0
-25 -88 149 0
314 438 -439 0
-19 -201 -350 0
83 130 -326 0
12 88 -148 0
84 372 -473 0
-60 366 -497 0
13 -263 -427 0
-412 439 448 0
-19 -128 -392 0
-351 394 -432 0
195 -337 470 0
-90 -164 -277 0
144 -219 -434 0
-351 391 -477 0
157 -187 -318 0
114 -158 184 0
315 354 -367 0
39 87 106 0
-140 211 -427 0
164 278 389 0
178 -277 -327 0
210 304 -399 0
99 -196 -222 0
-260 264 -334 0
119 156 412 0
291 -387 -436 0
-53 233 -447 0
-65 -229 438 0
-124 256 396 0
-106 384 -448 0
32 -190 -341 0
-202 234 -266 0
-224 334 -393 0
-217 316 488 0
-202 -207 357 0
-12 -435 -479 0
82 276 305 0
-84 -127 -295 0
179 -268 -403 0
149 -203 -204 0
-73 -197 247 0
-142 -200 215 0
140 -446 483 0
-232 323 -327 0
-101 111 437 0
15 -105 -370 0
-175 -370 -469 0
16 254 455 0
97 -135 -397 0
262 458 -497 0
-19 47 487 0
21 -141 282 0
-9 -206 -308 0
247 -284 441 0
-175 -334 -380 0
-84 -332 -449 0
169 290 347 0
59 142 475 0
-293 -346 472 0
-68 -71 -357 0
69 -191 257 0
-84 433 -462 0
-191 272 -345 0
167 -235 -347 0
-14 272 -360 0
106 -435 -465 0
-99 -200 -459 0
46 231 -298 0
209 406 491 0
102 -164 -414 0
105 -358 -494 0
54 -282 -334 0
9 158 -250 0
-431 437 453 0
331 431 -494 0
-13 -223 -290 0
257 284 456 0
117 -194 398 0
-36 -323 -453 0
82 98 315 0
55 200 446 0
-211 388 -434 0
114 -214 -377 0
12 -23 158 0
8 -178 -314 0
-48 272 361 0
29 -352 -385 0
-330 429 473 0
141 -170 -344 0
89 137 355 0
-28 -75 451 0
136 -198 -460 0
11 137 299 0
156 383 397 0
142 298 497 0
243 -248 271 0
-325 338 -375 0
-12 224 319 0
-52 224 -303 0
-6 306 353 0
-175 -380 446 0
24 82 485 0
227 -399 -492 0
-43 80 292 0
-256 -358 -496 0
155 -158 268 0
109 -148 -347 0
-44 215 -266 0
37 146 -458 0
64 -327 -372 0
206 245 388 0
-159 -314 -321 0
-213 -251 -358 0
-148 -214 330 0
-197 -323 453 0
65 131 438 0
143 156 224 0
-9 -317 -415 0
68 -165 362 0
-254 337 388 0
281 -300 -375 0
-82 -100 270 0
-332 -372 -392 0
75 92 268 0
-131 316 427 0
170 291 429 0
-226 -305 389 0
45 124 -125 0
-116 333 494 0
3 -169 -349 0
-39 221 -410 0
-318 341 -444 0
-90 161 306 0
-249 -427 452 0
-212 -316 475 0
-199 222 -350 0
-316 -395 -474 0
55 -137 401 0
-87 165 470 0
17 -356 -402 0
-283 -338 -452 0
72 111 -114 0
-87 135 -455 0
-102 -227 -484 0
-203 392 487 0
-32 329 -417 0
4 45 -430 0
-274 317 374 0
21 -98 103 0
147 185 226 0
246 290 327 0
-19 -62 117 0
153 437 -498 0
-136 -341 -377 0
124 164 -363 0
-66 -174 439 0
110 255 472 0
74 -111 -495 0
27 73 -274 0
51 -120 -283 0
-245 388 -409 0
247 348 -483 0
-142 310 368 0
165 182 185 0
-50 -335 -457 0
25 43 -78 0
-341 -442 454 0
191 -296 -320 0
269 -305 -376 0
107 -182 -433 0
147 -286 -360 0
367 403 -419 0
-213 235 359 0
56 396 458 0
-16 -345 381 0
175 199 396 0
-9 -120 -144 0
-168 362 -466 0
-166 487 -496 0
176 -240 -298 0
-16 85 310 0
-358 -371 424 0
-42 -159 460 0
-34 -65 -391 0
30 174 475 0
4 124 420 0
117 -143 -209 0
159 -358 -440 0
76 -156 396 0
-74 -105 481 0
91 -297 347 0
172 -303 -455 0
25 343 381 0
16 476 -496 0
25 -354 447 0
-79 353 395 0
-220 233 487 0
-58 317 -433 0
239 246 -442 0
-276 453 498 0
326 394 -433 0
14 -122 -344 0
-59 66 398 0
110 184 -376 0
17 28 -69 0
54 119 -219 0
-310 -388 -489 0
199 376 -428 0
30 -211 -230 0
-174 324 -412 0
-6 -175 394 0
10 -140 -167 0
-95 152 157 0
11 -108 -120 0
194 413 -429 0
40 -68 -424 0
212 474 496 0
57 -174 327 0
102 -336 364 0
82 -90 -431 0
-117 202 -472 0
79 148 489 0
9 282 -483 0
35 -105 291 0
-66 181 487 0
342 -386 399 0
353 389 -459 0
-207 316 -384 0
-134 143 355 0
-82 -396 -412 0
140 -267 -441 0
80 -92 -305 0
-20 409 -462 0
-96 -210 -309 0
-30 336 353 0
220 -284 -322 0
103 170 -196 0
-45 -283 -420 0
-20 -83 402 0
136 -145 345 0
-137 417 480 0
185 -361 -406 0
-276 -421 -450 0
347 -377 444 0
-56 -68 -382 0
3 -147 495 0
-383 -460 -486 0
-57 184 -324 0
-189 213 -353 0
-74 357 -465 0
-46 -273 440 0
119 -255 -289 0
-1 -56 -373 0
277 -351 -436 0
12 -251 364 0
186 267 -284 0
3 298 -307 0
2 -93 215 0
-133 -137 -418 0
-151 -210 450 0
73 -415 -452 0
185 -281 465 0
-101 -228 384 0
161 271 -277 0
133 -158 312 0
355 410 -462 0
-308 436 -490 0
-14 -254 479 0
-223 233 323 0
-53 143 221 0
-223 -331 422 0
-39 -272 -484 0
253 348 468 0
152 -182 356 0
-89 -121 128 0
-157 -411 -458 0
-157 163 -398 0
72 260 -263 0
173 235 437 0
38 -53 -413 0
414 438 -471 0
280 425 437 0
158 -250 265 0
-56 -285 352 0
179 226 347 0
190 -410 -424 0
-171 -374 -457 0
359 376 405 0
-347 359 459 0
18 167 194 0
-18 -115 -202 0
-131 -238 239 0
-237 -299 385 0
59 -178 -375 0
33 -78 -484 0
-392 -422 -483 0
141 -297 -316 0
-18 353 404 0
56 -147 -436 0
-66 -272 -460 0
-56 57 309 0
-272 303 354 0
204 287 453 0
68 -393 -476 0
13 -32 87 0
-76 -416 439 0
-294 -472 473 0
84 102 -140 0
181 -396 -462 0
-168 175 298 0
96 -172 349 0
-23 -31 422 0
326 434 493 0
-12 -26 -281 0
-149 -357 -412 0
43 137 495 0
-252 -331 -455 0
35 381 414 0
-6 99 230 0
-109 -189 -232 0
29 90 -496 0
49 204 -384 0
-85 -444 -453 0
5 -269 -365 0
-124 166 374 0
329 -421 487 0
342 375 -412 0
-30 69 447 0
301 -398 -399 0
-366 387 -405 0
125 -172 387 0
-28 147 190 0
-22 40 476 0
-172 -250 -298 0
60 -69 464 0
14 138 244 0
1 -31 498 0
304 -362 -450 0
-198 227 -384 0
13 -87 449 0
216 -238 -338 0
-203 -229 -387 0
-106 -113 -242 0
-38 161 398 0
-88 -314 467 0
-160 296 370 0
298 350 -478 0
102 285 343 0
-56 313 -341 0
52 -141 290 0
89 168 263 0
185 -284 -421 0
-18 36 -37 0
-20 23 -130 0
77 -309 -475 0
-28 84 475 0
-304 -324 338 0
-23 -107 386 0
-15 447 -498 0
-14 370 -467 0
3 -169 -406 0
-72 241 -413 0
-126 133 134 0
-162 -247 -395 0
-47 157 207 0
40 -176 -248 0
-325 382 424 0
-227 -376 399 0
-160 -242 322 0
-86 -113 -265 0
-127 -427 473 0
-201 -425 -454 0
162 -192 326 0
-151 -254 486 0
-123 -250 364 0
86 -307 -466 0
176 266 -401 0
98 -235 -374 0
87 -332 -452 0
195 -288 431 0
-248 287 411 0
6 22 269 0
48 -227 -270 0
-175 -267 450 0
115 444 499 0
72 405 452 0
-344 366 -481 0
231 -242 375 0
-154 -172 -277 0
104 162 266 0
22 47 -77 0
-66 -223 -411 0
73 -125 253 0
-159 -169 -177 0
-149 175 190 0
-126 165 297 0
323 -402 -473 0
-132 -250 -355 0
37 -68 -454 0
101 220 -481 0
17 -25 -301 0
-122 204 263 0
76 -93 -243 0
211 339 -495 0
-321 486 488 0
212 225 -389 0
-322 -336 450 0
-79 -219 -488 0
-100 -107 -250 0
-34 374 461 0
-49 -100 -230 0
-366 378 -462 0
248 271 442 0
-265 372 -380 0
38 -53 178 0
-126 248 -332 0
69 216 -230 0
210 246 482 0
160 -194 267 0
-39 -356 -433 0
-158 362 499 0
-47 -284 289 0
59 121 -417 0
303 426 -481 0
-195 -286 -414 0
-29 214 -256 0
-147 -359 -493 0
-245 254 306 0
-148 -202 207 0
-68 364 454 0
-118 366 -420 0
-181 453 -459 0
126 303 478 0
-272 388 446 0
-46 313 354 0
-84 91 -415 0
22 339 483 0
-68 -118 148 0
-43 233 -294 0
131 332 404 0
124 130 485 0
7 38 442 0
-287 -464 492 0
124 327 -335 0
-9 141 415 0
112 266 -340 0
106 114 168 0
21 131 282 0
-129 165 -371 0
-32 -104 -464 0
-25 389 496 0
-31 -266 -454 0
27 -308 348 0
-170 -352 -431 0
-108 150 218 0
297 -431 -461 0
-20 152 -486 0
-108 -405 -468 0
89 254 -311 0
226 -393 464 0
154 -179 277 0
19 88 -329 0
65 280 -287 0
-112 -193 -316 0
337 -349 -418 0
138 162 230 0
161 338 445 0
273 395 -475 0
86 -304 -393 0
14 -49 -278 0
-32 345 -366 0
-247 254 497 0
170 206 -362 0
167 198 442 0
-124 205 414 0
30 -238 388 0
17 216 -300 0
-109 -127 -398 0
98 -156 -182 0
348 -349 -362 0
-32 145 213 0
100 262 438 0
123 421 -460 0
260 291 -484 0
79 308 460 0
221 -410 -480 0
-278 -340 -484 0
-105 301 485 0
-88 -265 -429 0
275 -385 -430 0
-161 256 261 0
-118 -465 474 0
172 -288 -389 0
63 -227 -283 0
-3 344 -385 0
-111 -144 357 0
-64 -389 428 0
-62 101 333 0
-36 -58 -355 0
-226 -247 -384 0
-197 281 304 0
17 -95 -398 0
-33 236 301 0
-169 362 -443 0
114 -433 -467 0
-136 -181 -391 0
-150 177 494 0
-72 169 278 0
226 -329 494 0
54 -259 -263 0
-41 -226 -339 0
-319 365 -414 0
7 -170 -282 0
-38 215 245 0
-277 338 363 0
3 -122 132 0
240 282 -478 0
63 -334 419 0
233 -273 500 0
251 354 394 0
-81 -132 301 0
-8 214 304 0
8 291 -493 0
274 -356 -366 0
50 60 167 0
-45 -90 209 0
46 -50 142 0
-222 -433 453 0
-86 217 444 0
153 -416 464 0
192 -275 -380 0
175 -236 -457 0
72 -180 -387 0
-384 432 -467 0
-11 183 -191 0
60 160 316 0
-12 46 183 0
-21 -289 467 0
37 40 475 0
-11 -142 187 0
398 -422 430 0
-189 369 500 0
34 -334 -401 0
11 -308 -446 0
-314 -472 -481 0
-12 92 -366 0
-86 -350 360 0
-26 -37 -463 0
-115 153 477 0
133 272 408 0
403 410 -488 0
340 -369 418 0
87 247 410 0
76 225 -253 0
24 -193 312 0
-7 206 369 0
-97 -102 -107 0
181 248 328 0
-145 -209 -344 0
-154 -227 329 0
-3 -259 431 0
-120 217 302 0
-57 103 -121 0
287 -384 -387 0
-32 410 435 0
320 447 454 0
-66 -344 414 0
-99 -119 -226 0
-274 347 441 0
86 257 264 0
-57 -70 468 0
-37 123 453 0
208 -327 492 0
-28 102 467 0
-90 288 364 0
103 -208 340 0
-81 320 -390 0
-69 -350 -357 0
-105 177 -286 0
-297 -375 -492 0
-166 -364 -465 0
-167 -260 290 0
82 -193 -317 0
25 -73 340 0
-21 160 -290 0
88 -165 498 0
-63 -84 379 0
141 257 392 0
-244 407 -439 0
-168 -279 -387 0
245 -280 -406 0
152 219 -419 0
-195 -260 -362 0
-80 -106 335 0
-51 -263 -418 0
-33 420 -428 0
-316 -326 -345 0
120 335 -340 0
264 -405 -493 0
269 -307 356 0
251 -392 -494 0
89 -266 422 0
-395 452 -466 0
35 40 51 0
-162 279 498 0
114 259 335 0
-124 -395 -487 0
138 -223 429 0
80 81 -281 0
35 -398 -495 0
-110 -231 -446 0
-113 177 -364 0
28 -162 220 0
-47 -286 430 0
271 -470 477 0
-362 367 472 0
-351 412 421 0
91 209 374 0
34 100 -370 0
-120 269 476 0
5 158 333 0
-138 -468 -496 0
-2 -205 -290 0
-67 236 -407 0
145 162 -490 0
21 -181 -201 0
-186 -364 423 0
217 -259 283 0
-164 -236 360 0
185 351 415 0
19 -45 -474 0
-69 275 -345 0
221 -263 -298 0
13 -163 -441 0
255 264 -471 0
-7 -281 -488 0
125 -392 -441 0
-120 230 361 0
-316 390 458 0
-385 -482 491 0
-137 207 -356 0
163 336 343 0
-94 -275 -469 0
340 -384 -401 0
-191 350 362 0
45 -57 -389 0
5 -29 -103 0
301 354 -443 0
-32 300 380 0
-144 -478 489 0
-32 47 385 0
103 200 -214 0
47 59 -147 0
-14 -175 407 0
-171 313 -345 0
75 142 -315 0
-83 -407 -460 0
207 -369 -387 0
202 -281 491 0
331 -442 492 0
233 333 397 0
215 356 -357 0
-79 -210 -391 0
310 -313 401 0
50 345 377 0
36 -414 -487 0
-97 -207 448 0
-335 384 -400 0
-155 -222 -500 0
-77 255 349 0
43 -88 165 0
-108 164 357 0
91 187 404 0
92 297 -387 0
-298 390 448 0
59 266 -287 0
63 106 356 0
49 368 -379 0
-196 -281 -455 0
-12 -44 275 0
-58 145 237 0
21 395 448 0
-409 422 462 0
227 241 420 0
-152 165 -391 0
-376 -469 -488 0
-94 -183 471 0
-8 -199 -371 0
298 -384 448 0
-175 250 373 0
34 -74 145 0
59 -221 243 0
-7 -184 416 0
90 312 -367 0
28 -102 -194 0
33 -210 377 0
393 440 -448 0
-51 -126 219 0
-135 179 194 0
-41 -166 460 0
-228 -348 -412 0
-9 -187 -324 0
-114 152 -448 0
84 139 394 0
75 -90 -374 0
-49 -247 -438 0
-253 -320 395 0
71 -487 488 0
108 175 478 0
-17 -120 192 0
-131 -266 -457 0
-166 -188 -481 0
-163 -348 435 0
-218 403 494 0
71 430 487 0
165 174 -491 0
-113 329 -395 0
-101 -324 -467 0
-71 -86 -226 0
-29 -141 -367 0
156 -252 399 0
39 232 -312 0
-34 371 377 0
-10 -12 381 0
124 -347 391 0
-21 -437 495 0
-112 -124 -430 0
-112 -252 361 0
-95 214 -223 0
-54 435 447 0
-104 -106 204 0
-134 138 -150 0
33 220 473 0
91 -251 258 0
242 -340 -482 0
23 -191 -290 0
153 327 445 0
384 -430 470 0
90 -212 -321 0
-17 31 243 0
-53 103 425 0
-14 -114 493 0
281 -293 385 0
-57 437 -455 0
-23 -256 -420 0
81 241 253 0
-40 231 259 0
187 -215 -382 0
18 52 -342 0
94 -203 317 0
-10 -339 448 0
119 378 399 0
-200 275 -365 0
-68 231 478 0
178 -267 -486 0
-224 -233 298 0
7 185 -295 0
27 153 -341 0
163 349 367 0
213 -316 371 0
96 -269 -330 0
-155 -199 -250 0
-102 135 -498 0
-159 -385 -450 0
69 -107 314 0
60 -129 153 0
126 199 211 0
168 -371 -463 0
13 -409 -493 0
-27 117 379 0
-110 -301 489 0
-48 187 335 0
305 385 392 0
37 59 488 0
-123 -224 -436 0
-193 -363 -419 0
-49 -158 -324 0
23 361 -377 0
2 150 473 0
89 -195 398 0
35 126 228 0
81 -83 -290 0
-42 156 298 0
225 394 453 0
-84 -182 432 0
114 162 312 0
-62 -402 -437 0
-141 -206 -433 0
-131 -150 449 0
-321 339 427 0
151 -225 -397 0
-113 304 -341 0
-98 244 318 0
-63 -240 -392 0
-19 -111 -394 0
99 -251 -452 0
-206 400 -480 0
9 -13 125 0
127 -271 -395 0
200 296 360 0
95 164 -213 0
81 82 -178 0
85 334 393 0
-140 -274 444 0
-31 458 469 0
53 178 -321 0
-186 -294 365 0
161 -269 441 0
-119 -363 -430 0
8 354 487 0
-81 -201 -490 0
117 271 -337 0
-228 256 -441 0
15 -292 448 0
-208 -315 -416 0
-55 128 -157 0
-141 196 421 0
178 355 -475 0
-77 265 353 0
8 -116 -272 0
159 279 320 0
86 -140 -445 0
39 94 -417 0
-306 -336 -385 0
8 112 -374 0
55 193 295 0
127 199 289 0
138 -146 498 0
154 341 466 0
101 333 359 0
-245 303 -354 0
91 -225 -358 0
218 339 397 0
-37 -114 -446 0
-74 348 -463 0
219 -265 329 0
-163 -312 455 0
58 -75 398 0
-255 281 -404 0
65 -178 428 0
-45 -250 -275 0
-218 355 385 0
-300 338 -349 0
35 321 -490 0
-29 -222 452 0
165 326 425 0
-75 -114 222 0
-52 -229 -399 0
-20 207 257 0
-214 -216 482 0
-155 -336 448 0
-171 395 -425 0
-128 -289 430 0
78 -103 -156 0
394 417 479 0
-122 -125 -420 0
-225 301 -345 0
141 -376 -432 0
-29 -232 438 0
-120 -388 -494 0
86 -98 -382 0
-15 -462 466 0
-153 -214 -345 0
-120 222 -312 0
90 314 462 0
-145 190 -469 0
-404 462 496 0
219 288 -395 0
71 -130 356 0
115 347 395 0
148 -187 217 0
-61 225 -467 0
149 -294 465 0
-84 -137 -355 0
193 -315 490 0
60 -140 -155 0
-28 -168 261 0
-184 -225 -375 0
79 126 127 0
-199 -241 297 0
152 334 365 0
-88 -121 -370 0
117 -290 325 0
62 235 -363 0
-109 196 -435 0
193 -430 -450 0
221 479 -495 0
-296 -307 419 0
-198 -355 378 0
226 355 -450 0
-3 8 -442 0
184 -267 -357 0
155 227 272 0
123 -458 -465 0
314 331 377 0
7 -80 -181 0
-289 -398 -424 0
54 -92 -339 0
-13 -283 499 0
150 169 -170 0
315 389 435 0
-50 324 498 0
-20 -223 -343 0
-60 284 485 0
117 343 449 0
-35 -234 245 0
109 -138 -397 0
15 -171 -260 0
-22 34 -237 0
20 303 329 0
-7 277 478 0
-98 319 -444 0
-66 -128 422 0
80 -123 490 0
3 -218 -233 0
125 231 -366 0
-94 -118 381 0
255 -336 468 0
64 -232 -361 0
236 -348 395 0
22 33 -196 0
292 -360 -385 0
-52 -86 -389 0
-179 -183 -328 0
-12 -362 -436 0
100 -144 -233 0
-45 162 380 0
136 244 471 0
275 385 489 0
-186 -288 478 0
161 292 -367 0
-58 -317 -342 0
85 161 -465 0
174 -355 -477 0
30 227 -414 0
-29 -70 240 0
113 370 -477 0
-8 258 -477 0
-256 359 488 0
-4 -51 -386 0
-78 -325 -336 0
40 107 -219 0
-32 -112 -204 0
-49 154 423 0
-4 251 -303 0
-88 -287 -441 0
147 -216 340 0
173 232 397 0
-249 442 486 0
419 -446 -488 0
-71 484 -489 0
-172 297 -308 0
-37 -69 323 0
11 -49 -227 0
24 -207 330 0
117 -133 212 0
-21 60 -206 0
340 483 489 0
68 -302 -433 0
-186 237 432 0
-20 112 -317 0
14 -256 -327 0
14 80 464 0
350 383 -411 0
8 319 323 0
361 426 -489 0
-159 247 -316 0
199 -434 -496 0
71 -244 -379 0
-36 222 -496 0
-20 225 328 0
-91 -191 199 0
-192 242 423 0
181 -368 408 0
-243 -332 397 0
240 -333 -421 0
154 180 -297 0
220 227 -496 0
134 364 459 0
-155 329 357 0
27 96 199 0
185 -209 -296 0
38 -83 257 0
208 -275 -293 0
84 96 159 0
135 -186 -486 0
-148 -157 -407 0
37 223 411 0
334 338 -411 0
206 -303 -343 0
-21 -61 -482 0
146 -160 -242 0
-353 383 -488 0
-8 -42 -161 0
60 88 -335 0
-57 -61 -98 0
33 -339 402 0
-89 281 -421 0
-180 -227 -369 0
57 391 -495 0
-205 -225 -424 0
86 186 268 0
-122 313 364 0
-151 159 -397 0
-163 374 435 0
31 -429 500 0
91 -116 -382 0
154 397 431 0
-5 202 -306 0
7 67 -465 0
214 -242 -281 0
-88 180 -204 0
157 290 -473 0
97 -359 -448 0
-53 202 -292 0
72 -213 385 0
-302 394 -481 0
-10 172 334 0
5 349 -440 0
121 257 -334 0
258 -261 371 0
-126 -409 -491 0
151 275 311 0
-89 188 267 0
214 413 493 0
-128 -381 -384 0
356 -384 -497 0
-34 74 -492 0
83 86 120 0
-25 -153 -498 0
-150 -233 -405 0
-87 -107 -211 0
282 290 -485 0
33 325 -331 0
-90 330 348 0
202 215 -326 0
218 -232 -391 0
91 -243 -418 0
163 -217 -249 0
-80 -314 -456 0
-179 -218 428 0
-154 270 -497 0
-42 -166 254 0
-49 -247 -269 0
271 -274 400 0
-164 -203 237 0
25 345 377 0
-55 131 -424 0
-257 -309 -421 0
-146 147 182 0
53 -420 -449 0
-286 -310 -369 0
52 -162 -303 0
-105 -249 -356 0
224 -325 371 0
163 -270 -402 0
115 -403 -450 0
-89 125 225 0
-1 -95 -143 0
-101 -146 -393 0
61 305 380 0
254 -393 -491 0
-294 378 419 0
124 252 -325 0
-114 -127 -464 0
-254 -277 -383 0
-198 223 374 0
18 -114 -456 0
-107 186 -344 0
-137 -211 413 0
-297 471 -477 0
368 417 488 0
-265 313 -357 0
321 -375 413 0
138 -179 -487 0
-310 338 479 0
15 -243 479 0
29 97 -231 0
28 105 -441 0
345 380 426 0
131 333 -370 0
41 -77 305 0
83 227 266 0
135 -333 -404 0
17 -104 264 0
-97 -250 407 0
-19 151 443 0
-133 -185 -448 0
40 241 347 0
-10 41 322 0
181 -240 -379 0
-421 -439 -459 0
-68 115 -481 0
-37 -161 304 0
184 -191 351 0
4 -338 -433 0
-31 208 396 0
-14 301 329 0
-169 196 -490 0
56 196 498 0
38 243 -257 0
111 281 -382 0
141 -250 280 0
-61 -128 -433 0
-1 39 -98 0
78 130 -244 0
-89 220 -493 0
144 332 398 0
-193 425 454 0
-334 351 -383 0
114 256 378 0
89 -194 -430 0
230 278 422 0
96 126 -223 0
9 -239 -319 0
-35 -193 -204 0
91 -161 182 0
-20 257 -495 0
147 334 -427 0
236 -281 436 0
-122 240 -400 0
-31 -334 458 0
191 258 471 0
69 -150 -500 0
209 -310 -498 0
-26 85 -396 0
200 205 -325 0
-249 347 -466 0
135 -211 -259 0
71 219 -222 0
83 112 207 0
-64 -151 -220 0
-198 -257 -498 0
78 -150 405 0
-115 -138 -375 0
43 46 -333 0
70 114 477 0
1 -404 440 0
-171 324 -426 0
136 -286 377 0
-209 -310 358 0
-17 73 81 0
133 -271 462 0
232 -354 444 0
-146 203 227 0
42 120 -407 0
-48 280 282 0
-38 41 334 0
-26 144 186 0
64 -393 -448 0
-250 -258 395 0
-45 144 -409 0
168 -243 299 0
-118 164 233 0
-60 266 480 0
-288 453 -493 0
35 350 -375 0
126 -210 -270 0
-114 -209 -430 0
-33 -74 232 0
-235 -270 -315 0
81 -131 -484 0
-140 184 -299 0
71 111 -420 0
-90 -105 -142 0
155 407 -437 0
-66 -155 -192 0
-91 342 383 0
78 -119 -241 0
-71 -139 455 0
-134 -213 -228 0
-288 -300 347 0
-40 -137 -196 0
-35 -443 444 0
-41 -123 216 0
-253 427 451 0
54 -157 -255 0
191 275 -460 0
-12 39 56 0
-113 -132 306 0
174 -250 -375 0
54 -283 496 0
32 147 -350 0
97 -318 441 0
73 138 482 0
-15 19 361 0
-228 256 -299 0
161 -228 290 0
-17 301 319 0
25 197 344 0
-212 -213 363 0
-108 -127 241 0
25 -357 500 0
-142 287 -298 0
-93 -333 463 0
46 -291 417 0
21 233 483 0
-284 -446 499 0
231 333 450 0
20 288 -443 0
141 -421 -429 0
30 -66 -119 0
-152 -343 354 0
335 -425 485 0
-32 239 411 0
29 193 433 0
-165 -220 487 0
-190 280 -287 0
-63 162 313 0
-75 214 216 0
-14 -47 222 0
-4 212 -213 0
-19 -234 -474 0
-195 -254 -348 0
166 335 -408 0
-184 -389 -444 0
-62 -240 -387 0
22 104 469 0
-178 -191 -342 0
122 -275 -410 0
101 324 -421 0
13 -197 -471 0
20 333 363 0
-88 233 -481 0
21 -307 469 0
-198 475 479 0
-79 -149 315 0
-217 -391 448 0
-8 57 -412 0
-66 137 -273 0
128 -226 -491 0
-98 142 -323 0
13 360 -390 0
1 50 102 0
-259 349 451 0
-211 233 345 0
2 -351 376 0
126 -250 360 0
54 -311 426 0
298 -362 479 0
-224 -450 475 0
-114 359 410 0
217 220 368 0
-198 412 -444 0
-131 -274 414 0
215 -302 491 0
61 244 469 0
133 -222 368 0
-5 80 -153 0
229 375 -462 0
77 -264 498 0
-79 -255 266 0
164 209 -232 0
15 -207 355 0
-374 391 -482 0
-208 275 447 0
7 96 401 0
-214 250 -483 0
236 284 379 0
-117 160 340 0
-232 368 -425 0
-210 234 500 0
-263 379 486 0
-61 203 317 0
23 285 -498 0
204 311 -403 0
60 -189 347 0
-129 -344 -360 0
-34 -132 -254 0
-201 -276 -413 0
55 385 -454 0
30 258 -301 0
-145 379 401 0
-103 -229 324 0
11 -200 444 0
105 122 411 0
-41 285 422 0
-107 119 324 0
-267 -282 -426 0
238 403 474 0
-99 -125 -310 0
48 -124 -367 0
70 -96 424 0
-15 -191 -218 0
-139 310 -413 0
51 -58 -413 0
-30 -181 341 0
123 273 456 0
118 159 -224 0
-11 75 -422 0
105 -272 455 0
-9 -363 -425 0
335 375 399 0
138 173 -301 0
111 -205 302 0
-52 -146 481 0
-265 313 396 0
277 388 -424 0
-229 -311 347 0
135 -187 305 0
351 360 -420 0
122 333 477 0
-201 216 -273 0
118 -370 -464 0
-378 -409 451 0
118 267 331 0
-254 -315 -413 0
36 368 -384 0
-261 -435 437 0
-275 407 -478 0
-44 235 495 0
424 -439 -500 0
-50 257 -356 0
-279 -322 401 0
331 426 -449 0
-215 264 -403 0
-31 196 321 0
-227 285 375 0
-175 -267 -358 0
81 125 -195 0
314 -392 420 0
100 -372 -439 0
-70 94 -222 0
42 -156 373 0
-110 -330 412 0
-28 56 -229 0
121 196 -274 0
200 251 484 0
-85 -195 313 0
34 -88 -233 0
-59 -192 -375 0
197 -423 453 0
-42 -127 473 0
-114 -439 488 0
231 285 289 0
-204 -285 364 0
5 83 305 0
120 222 -257 0
-96 -109 -246 0
96 -271 452 0
58 -231 -283 0
184 -264 416 0
63 108 -381 0
44 107 307 0
38 -159 340 0
161 -271 390 0
-73 77 127 0
109 236 -444 0
10 224 -477 0
171 -184 335 0
-204 -246 466 0
-209 -376 438 0
6 -144 211 0
265 269 -406 0
48 341 -387 0
-117 -177 -206 0
145 -295 -355 0
-249 -463 487 0
64 289 367 0
-9 -51 -460 0
-289 -433 466 0
-93 -214 -289 0
332 351 -500 0
24 63 -192 0
26 -291 466 0
378 410 -472 0
6 193 -460 0
241 286 478 0
-118 -386 -394 0
158 -160 197 0
-114 -190 213 0
111 -311 -450 0
21 -168 328 0
-10 -202 -451 0
59 -338 -419 0
-52 94 488 0
277 -402 468 0
-265 -294 -382 0
-21 -72 -211 0
-155 -292 -458 0
-29 259 319 0
250 -401 440 0
37 204 250 0
-89 241 -306 0
16 -98 362 0
-334 -389 -448 0
12 197 -439 0
201 -229 -478 0
149 -314 327 0
-98 -229 459 0
-113 127 289 0
174 -346 473 0
137 -138 151 0
-103 -194 -389 0
218 299 -469 0
27 381 492 0
-283 -465 495 0
-2 278 -287 0
265 397 482 0
159 227 266 0
135 -171 -256 0
-98 203 -465 0
-50 -179 -451 0
32 356 358 0
-53 163 -441 0
65 -355 -454 0
-45 199 304 0
-165 271 -356 0
52 -273 -324 0
156 -211 -216 0
170 262 -442 0
319 -421 449 0
-267 -458 -468 0
-298 -404 -420 0
114 -276 316 0
67 -247 -274 0
8 168 -228 0
-58 168 -499 0
-121 -162 -406 0
-151 180 -490 0
144 384 477 0
16 30 91 0
224 -250 -406 0
116 282 -495 0
139 203 327 0
-17 -173 -257 0
-109 286 -392 0
217 263 482 0
-341 -369 474 0
48 299 -464 0
-91 -292 -400 0
-22 253 -432 0
16 -185 423 0
-35 -143 460 0
-134 306 346 0
210 -325 -334 0
-28 -461 471 0
178 -322 -478 0
-167 213 -227 0
-67 210 -465 0
244 -306 -496 0
-168 243 393 0
354 -442 -443 0
194 -195 -453 0
-83 -177 214 0
-117 218 440 0
-310 314 -427 0
-211 369 408 0
78 447 -468 0
17 -206 -342 0
193 -344 475 0
214 -242 -411 0
-18 -325 -431 0
-296 -444 -479 0
-58 -364 494 0
307 -331 -456 0
31 -88 357 0
158 -282 -331 0
211 313 -498 0
60 182 413 0
103 306 -350 0
-35 48 465 0
35 -273 402 0
303 -474 475 0
134 223 -314 0
-17 253 -350 0
230 -396 -436 0
-76 390 408 0
-72 -277 491 0
-115 -146 320 0
49 151 -211 0
185 -396 404 0
87 373 470 0
-258 406 -474 0
-216 426 -491 0
22 -459 -473 0
58 138 -454 0
63 -296 411 0
141 -347 430 0
-102 129 -298 0
-175 -346 -434 0
-188 239 -410 0
5 118 175 0
325 -474 483 0
84 -272 -493 0
151 312 -371 0
-189 456 -480 0
2 -219 -222 0
378 408 439 0
53 -167 -405 0
89 310 364 0
-44 88 292 0
38 61 178 0
-246 280 315 0
-49 -358 422 0
-64 -188 -470 0
127 302 334 0
128 -408 -443 0
18 488 -494 0
121 -365 389 0
-80 -258 -320 0
-125 -253 328 0
89 -185 -449 0
84 145 423 0
209 -266 -291 0
53 77 -273 0
-213 302 -376 0
215 338 441 0
147 -169 368 0
