c description: Random 3-CNF over 500 variables and 2129 clauses
c generator: CNFgen (0.9.6)
c copyright: (C) 2012-2026 Massimo Lauria <massimo.lauria@uniroma1.it>
c url: https://massimolauria.net/cnfgen
c command line: cnfgen randkcnf 3 500 2129
c
p cnf 500 2129
90 -189 427 0
3 165 388 0
454 -471 497 0
39 259 -349 0
97 239 433 0
-44 -175 283 0
275 321 480 0
87 327 451 0
-270 -293 299 0
-351 440 456 0
343 -390 -468 0
95 291 307 0
19 45 -308 0
-42 -219 -361 0
-120 -376 465 0
-21 -148 356 0
234 -291 492 0
-53 -482 489 0
61 338 -395 0
55 -150 398 0
-81 288 -435 0
-236 277 298 0
62 103 167 0
-35 141 277 0
-290 -430 -482 0
29 162 -214 0
105 -199 -312 0
-43 -104 -254 0
-131 -235 -380 0
87 253 433 0
-54 122 -384 0
9 -46 -471 0
-154 364 -478 0
-26 208 -416 0
13 321 493 0
63 -277 -491 0
-177 -274 358 0
349 395 -436 0
-122 359 468 0
171 234 -355 0
-12 67 -309 0
-328 350 459 0
-171 238 408 0
-236 355 359 0
-134 266 -439 0
-141 -353 489 0
-260 367 -408 0
-220 -234 -315 0
-10 -48 193 0
-70 -173 -378 0
122 280 -295 0
4 -114 290 0
-105 -198 372 0
80 -391 -412 0
-233 425 -486 0
71 -258 477 0
-139 434 461 0
102 127 -293 0
-61 199 449 0
20 143 258 0
-236 322 -448 0
146 -265 -314 0
-296 348 -438 0
-3 -120 -206 0
348 421 482 0
110 132 161 0
-80 -238 -445 0
340 -457 -490 0
10 244 259 0
357 453 492 0
-27 267 449 0
-246 -369 468 0
151 255 471 0
4 -5 400 0
-37 162 174 0
-76 -331 436 0
48 356 -399 0
83 -236 -243 0
-87 313 -458 0
368 392 -414 0
-220 355 454 0
-78 472 474 0
55 -138 -275 0
9 -10 400 0
49 -139 -151 0
66 389 418 0
-363 -408 -462 0
77 -291 306 0
-116 -244 290 0
-54 -266 311 0
-17 -110 -391 0
-334 -394 478 0
-130 242 388 0
-101 -275 335 0
121 -217 495 0
-13 41 -133 0
68 327 -405 0
189 -230 -359 0
-118 -126 131 0
-128 225 -234 0
13 -208 -446 0
156 -227 373 0
77 293 399 0
93 -477 -499 0
-202 -255 -434 0
161 164 -445 0
75 -359 -375 0
26 -350 -361 0
-390 414 498 0
-232 418 -421 0
150 190 489 0
99 185 350 0
-170 -217 -363 0
148 310 -388 0
217 -309 398 0
-10 -67 -443 0
46 -245 -412 0
327 416 428 0
-21 156 -185 0
92 -358 -479 0
-217 -245 -315 0
-58 -83 -233 0
-36 -145 326 0
33 -78 -288 0
-167 354 -468 0
-78 -221 403 0
-127 -292 -294 0
-218 -251 -445 0
-135 -337 -348 0
229 232 263 0
-145 -355 -361 0
69 179 467 0
97 -119 -367 0
-33 -367 396 0
121 127 -180 0
214 298 495 0
199 -265 -459 0
109 -283 -407 0
-172 187 469 0
-118 -416 -455 0
-36 -50 386 0
10 -233 477 0
-31 -196 -278 0
185 441 492 0
289 319 361 0
-55 -133 222 0
-246 260 -409 0
-192 263 303 0
-194 236 -323 0
158 -391 424 0
-271 -301 396 0
304 460 472 0
-19 -460 -463 0
-100 184 -365 0
-12 -150 -289 0
-22 -171 369 0
85 -136 -496 0
350 387 -395 0
-230 321 -341 0
73 -244 252 0
24 320 -376 0
228 -289 356 0
85 110 -458 0
-170 -219 -243 0
139 -217 391 0
-43 170 -481 0
56 -79 -402 0
-142 220 -299 0
-252 -376 -499 0
-171 308 452 0
264 -378 482 0
-99 208 338 0
183 292 -413 0
-391 -392 -492 0
-260 -349 -391 0
33 152 -497 0
-89 216 -231 0
58 -285 427 0
9 96 -266 0
76 -92 -358 0
-55 163 -340 0
280 465 469 0
204 -264 451 0
109 -230 342 0
34 -35 -366 0
-151 -164 -265 0
169 -179 -315 0
78 -149 -349 0
-417 437 458 0
-75 400 499 0
-172 -261 323 0
69 -194 421 0
-41 -146 -406 0
-103 -385 391 0
6 103 181 0
30 -406 -460 0
269 299 -398 0
153 189 -340 0
-164 -196 434 0
43 -314 -379 0
134 -147 348 0
-22 -31 -194 0
-16 189 366 0
-179 -408 -423 0
-255 443 476 0
-83 -155 206 0
22 -161 264 0
-287 -448 455 0
16 -157 231 0
148 180 444 0
-25 -82 109 0
-253 -284 297 0
-102 219 295 0
10 74 -166 0
9 -341 405 0
277 -291 -469 0
-87 106 190 0
354 -394 476 0
-37 161 -280 0
157 186 482 0
132 -205 -369 0
40 70 304 0
-27 -153 -198 0
207 224 401 0
-154 265 -387 0
-41 -125 -130 0
56 325 -389 0
331 -394 496 0
202 427 459 0
-7 15 -329 0
223 -269 321 0
172 453 -498 0
137 -204 -352 0
33 -148 -334 0
-151 -260 384 0
-82 328 347 0
-47 235 -330 0
-43 241 288 0
144 314 356 0
-45 -57 65 0
-296 -460 466 0
-21 137 158 0
-35 45 369 0
161 -403 499 0
-57 74 -86 0
27 -100 -324 0
165 194 -387 0
10 271 -471 0
-37 46 413 0
425 -426 457 0
1 -183 434 0
-48 -158 -425 0
127 -168 -340 0
234 324 -416 0
186 -263 -293 0
18 128 375 0
-72 -303 460 0
-111 170 348 0
-61 -214 -275 0
108 -227 433 0
22 167 198 0
112 164 -286 0
-114 260 311 0
72 211 -442 0
4 279 300 0
76 -279 -476 0
-85 -126 260 0
-412 -448 483 0
356 -370 421 0
208 352 476 0
80 236 -387 0
-66 -175 -313 0
-247 -453 -469 0
11 -394 499 0
-135 209 -308 0
-145 293 489 0
84 -342 416 0
111 420 -443 0
-54 -289 -409 0
-110 124 376 0
-49 103 423 0
-90 -311 403 0
24 -205 281 0
-226 -268 445 0
20 -235 458 0
163 -283 439 0
-88 101 -403 0
39 160 406 0
-185 -236 312 0
-149 167 284 0
16 -134 485 0
-8 121 419 0
14 -40 -94 0
-114 292 -426 0
-117 261 -343 0
160 220 345 0
-181 -322 489 0
-176 -333 -466 0
-143 199 478 0
-35 359 366 0
-116 278 -387 0
-24 146 -449 0
-61 -365 368 0
59 -270 -472 0
-189 471 -483 0
89 305 475 0
-117 120 -212 0
204 283 321 0
-135 478 -494 0
-176 366 -470 0
-10 -277 -280 0
-150 299 497 0
32 -232 -320 0
35 -369 427 0
215 275 -396 0
-35 267 365 0
86 -127 419 0
-127 176 -205 0
-7 333 460 0
-311 -341 -433 0
-71 -318 384 0
150 262 438 0
15 70 194 0
22 192 -427 0
-25 -256 393 0
-29 -51 456 0
-235 341 -491 0
-189 294 413 0
-212 313 356 0
110 -319 443 0
-142 -213 398 0
290 395 -458 0
129 179 -482 0
350 -369 -431 0
-53 -88 271 0
-35 193 323 0
112 -164 -363 0
186 376 -414 0
85 -461 -475 0
134 385 401 0
358 386 -480 0
-140 -149 323 0
205 211 -433 0
-4 93 -433 0
20 -273 316 0
99 403 -478 0
337 -482 490 0
-129 215 -273 0
-80 -382 -388 0
-130 298 -468 0
42 298 -437 0
-120 -435 451 0
75 -348 377 0
18 59 -337 0
-262 -265 -409 0
21 265 487 0
209 308 -429 0
-281 -388 500 0
-126 -151 -406 0
55 -290 -460 0
-150 304 -442 0
261 342 -371 0
101 -211 282 0
-192 -219 399 0
15 154 -435 0
105 -177 399 0
-74 -273 -352 0
81 161 447 0
263 424 499 0
108 212 -294 0
-181 -328 421 0
107 -298 362 0
227 -384 -462 0
-246 -345 486 0
-23 156 -487 0
108 -376 409 0
-37 180 -429 0
-135 -158 -418 0
110 -208 437 0
-227 -351 430 0
202 212 -250 0
177 -232 341 0
452 -495 496 0
255 296 -465 0
-127 -185 218 0
36 -45 491 0
-82 161 164 0
-44 277 450 0
-202 260 -282 0
85 -323 -409 0
-132 -282 476 0
-313 384 414 0
-106 -131 -486 0
196 -439 -462 0
-391 -403 -452 0
-95 344 481 0
220 275 413 0
127 -194 -340 0
155 -172 371 0
-101 -125 -187 0
276 315 -436 0
-140 292 -455 0
135 346 351 0
-246 436 -486 0
-104 -299 -426 0
400 488 497 0
179 237 -360 0
-107 264 361 0
82 -199 440 0
73 -102 402 0
-247 -295 -402 0
206 -208 -397 0
98 -377 -414 0
110 -202 234 0
-50 168 326 0
-154 -160 310 0
-27 55 220 0
200 -388 407 0
-117 -179 258 0
-59 -355 -357 0
-66 -223 -459 0
40 -61 396 0
19 -80 268 0
84 -308 -377 0
5 213 -285 0
231 241 436 0
15 -16 497 0
-130 -316 430 0
-136 -262 -362 0
-80 368 -477 0
45 -322 374 0
-163 -212 454 0
-57 82 -374 0
95 118 309 0
245 -266 289 0
-203 -320 -425 0
106 -171 -175 0
118 -206 -382 0
-208 331 486 0
-96 353 -373 0
-20 -181 449 0
-73 -208 309 0
-45 390 -460 0
118 -175 -354 0
-22 -240 348 0
-60 -241 -288 0
165 -325 -434 0
146 305 -430 0
-189 -205 225 0
114 421 428 0
275 -340 -467 0
-123 131 -474 0
-84 212 -273 0
311 410 -475 0
92 -121 491 0
17 -120 156 0
36 -162 -400 0
-105 127 218 0
37 73 -228 0
-392 418 -419 0
-71 -166 -304 0
358 -407 -465 0
234 368 -495 0
-137 390 441 0
108 -131 366 0
-28 -168 415 0
38 182 -306 0
7 163 -347 0
-26 -345 -392 0
-6 135 358 0
280 -309 -427 0
-82 145 -356 0
115 262 -485 0
-33 61 -217 0
-158 -223 401 0
-257 295 347 0
-17 245 296 0
-65 108 117 0
264 284 419 0
260 318 -324 0
-155 -304 338 0
321 382 -479 0
19 53 199 0
278 298 399 0
74 245 -365 0
393 -395 485 0
64 138 -377 0
-81 313 -393 0
-7 97 -373 0
76 317 419 0
33 -43 -491 0
-229 -359 -373 0
-113 -244 393 0
62 -371 -474 0
-12 -31 104 0
-123 -266 324 0
-308 -399 474 0
-190 -206 -345 0
108 -237 -287 0
-193 369 443 0
87 -340 -376 0
58 295 -437 0
-171 -256 303 0
-86 -156 -315 0
228 289 -330 0
330 -336 462 0
158 -434 -482 0
-169 -437 -452 0
40 57 -364 0
122 281 -288 0
72 87 -449 0
-132 174 380 0
-96 -337 -348 0
110 -205 -387 0
-105 -115 -463 0
345 412 -476 0
132 -266 498 0
-32 -452 481 0
148 231 -270 0
91 301 -487 0
-193 213 416 0
-25 155 449 0
-123 176 -428 0
122 -247 -394 0
118 319 -452 0
-5 16 -196 0
80 -198 473 0
104 122 -128 0
5 -81 276 0
-179 185 -389 0
-199 -255 -478 0
-65 -208 496 0
37 -124 217 0
132 -305 -394 0
149 -309 451 0
60 67 415 0
-69 285 -334 0
-100 124 -339 0
-398 -456 -498 0
26 -164 376 0
153 -458 480 0
9 -129 -473 0
-43 166 356 0
-196 -428 455 0
286 -291 -498 0
87 311 471 0
157 -210 249 0
-32 456 -469 0
-112 121 -228 0
127 292 308 0
79 84 120 0
-47 64 206 0
290 -393 -401 0
150 -270 342 0
-15 -291 -305 0
-16 -183 310 0
79 165 298 0
170 -181 433 0
-80 -180 -239 0
-82 -240 250 0
-61 -228 319 0
-416 424 -497 0
-18 -339 456 0
-155 -189 -199 0
-11 24 200 0
-186 -418 -473 0
356 373 457 0
294 -329 452 0
170 252 482 0
-20 -41 -318 0
-109 162 464 0
-280 364 -484 0
22 -59 445 0
12 -156 -461 0
39 -189 271 0
172 -310 435 0
35 60 -80 0
82 -268 276 0
-127 -298 332 0
-238 -341 -493 0
-176 -222 -442 0
178 -263 -331 0
-245 428 435 0
100 104 151 0
88 -154 451 0
237 -346 -499 0
-103 -184 201 0
-56 -286 405 0
116 -386 -480 0
435 -454 -482 0
39 -270 276 0
28 274 318 0
99 131 161 0
398 461 480 0
7 219 465 0
216 -243 -498 0
120 -335 394 0
-108 -155 217 0
-186 223 426 0
-9 -151 -259 0
-63 231 -254 0
-35 94 -341 0
262 -385 443 0
-304 377 -498 0
19 317 417 0
312 -315 -343 0
19 -285 -342 0
-195 410 -497 0
5 -7 322 0
385 -413 -475 0
276 323 -435 0
-343 -448 477 0
91 -145 282 0
-190 204 -473 0
136 -146 175 0
79 116 492 0
-257 359 -397 0
-158 343 -454 0
-181 -201 329 0
-14 -327 481 0
64 -70 -373 0
-227 358 429 0
14 289 -363 0
-104 106 492 0
-25 49 465 0
157 200 -419 0
64 -361 -487 0
53 166 -385 0
-111 172 203 0
149 209 -351 0
290 315 -471 0
199 373 -394 0
-32 -189 351 0
-30 165 384 0
48 -108 191 0
-149 -200 246 0
10 205 -373 0
105 206 283 0
-26 -94 -117 0
-260 -306 377 0
-84 327 -498 0
-209 228 368 0
37 44 173 0
-10 -227 304 0
104 -191 -285 0
-1 -94 -485 0
-29 47 182 0
30 -154 -181 0
-104 244 -481 0
-1 55 -376 0
145 -208 -350 0
-23 95 322 0
135 244 385 0
-52 -179 266 0
-52 -94 -470 0
-7 114 -415 0
55 -72 232 0
-93 125 -289 0
157 192 -438 0
-110 -293 332 0
180 -199 442 0
-220 258 432 0
129 267 364 0
78 285 387 0
68 98 -172 0
-174 279 450 0
8 -50 288 0
18 429 455 0
-149 -348 493 0
-89 122 -139 0
-141 -229 480 0
-382 -459 -494 0
-235 309 438 0
-130 151 -309 0
9 -191 476 0
-86 224 438 0
-62 -151 305 0
-207 388 458 0
-2 113 -446 0
-18 108 303 0
-281 -325 402 0
-45 -332 -426 0
17 443 457 0
228 300 -412 0
46 -50 77 0
265 303 436 0
-1 -34 -210 0
10 172 340 0
-242 -405 -427 0
202 431 -460 0
121 133 344 0
-40 98 402 0
-15 -324 396 0
121 -158 292 0
52 417 449 0
103 -445 495 0
-103 -108 -451 0
-47 142 407 0
-46 -235 444 0
289 -445 486 0
75 -264 -455 0
86 264 -476 0
170 -205 269 0
-161 294 371 0
118 408 -444 0
32 124 -352 0
126 205 487 0
26 -97 363 0
18 -252 353 0
162 -276 -402 0
47 -160 277 0
-42 190 -272 0
-52 -173 435 0
-138 190 237 0
-61 -277 -305 0
47 -83 -148 0
94 194 239 0
119 -282 -418 0
139 -269 -400 0
100 -157 -174 0
204 262 -385 0
14 139 147 0
12 -256 -467 0
-47 71 282 0
19 -282 -338 0
115 290 318 0
2 98 -258 0
-14 -274 -422 0
-21 245 413 0
-55 -59 -315 0
-50 98 323 0
-160 492 -494 0
-37 -130 -153 0
-25 157 -164 0
173 -204 -453 0
41 -89 -361 0
-73 -79 -246 0
-91 189 -432 0
-12 309 -487 0
205 246 403 0
130 -163 -378 0
208 209 -239 0
84 -146 -315 0
141 376 435 0
250 -362 -448 0
425 466 -472 0
-100 229 -368 0
-38 46 83 0
-78 152 -252 0
115 217 363 0
30 385 409 0
-70 -103 -380 0
-42 286 442 0
-288 313 -347 0
-261 405 494 0
-124 127 -384 0
-153 -413 -437 0
-225 -345 -414 0
-177 280 -364 0
29 -71 -357 0
302 -316 447 0
57 -291 350 0
-234 -292 -457 0
229 251 473 0
-53 66 179 0
296 -368 384 0
-285 -408 -410 0
-14 -69 -439 0
173 325 -464 0
14 266 -270 0
131 -353 386 0
-71 242 375 0
-460 -471 473 0
98 -265 -422 0
65 97 -201 0
-194 -213 -440 0
150 376 -396 0
45 119 -333 0
-16 -307 -326 0
-38 -140 -449 0
71 -189 -394 0
165 -189 223 0
69 -229 438 0
20 -296 -313 0
-81 -87 -248 0
28 42 291 0
141 -158 478 0
80 211 -352 0
-192 292 -361 0
10 70 -229 0
-328 -416 473 0
162 -365 -406 0
20 122 434 0
-283 302 344 0
-50 128 -218 0
-135 158 226 0
-31 78 204 0
85 -254 -481 0
235 -289 -324 0
-297 334 370 0
101 288 -311 0
107 243 428 0
-2 -4 469 0
-57 106 -363 0
-355 -404 -493 0
-318 -335 -376 0
-68 363 464 0
160 -256 -411 0
206 251 393 0
46 93 -285 0
-189 -352 387 0
213 368 -411 0
-15 -285 -388 0
31 136 475 0
-114 132 355 0
-78 -143 307 0
-139 -358 402 0
-62 261 -468 0
112 -302 -388 0
382 413 -473 0
-24 137 -281 0
-84 -283 417 0
131 244 288 0
-54 -82 118 0
-22 -306 437 0
149 213 330 0
8 -83 201 0
89 124 193 0
49 327 388 0
-94 193 312 0
-67 -256 490 0
-105 -133 -323 0
24 168 -349 0
25 -262 -407 0
-132 -440 -470 0
-165 331 -483 0
2 357 -422 0
106 -168 -303 0
-245 318 328 0
90 -173 402 0
116 341 -396 0
55 112 252 0
-303 -337 449 0
76 -81 -358 0
221 -249 -366 0
-111 199 -303 0
-287 -309 437 0
92 -226 -363 0
254 -279 298 0
29 -365 449 0
58 -264 408 0
95 -226 -233 0
-308 385 -435 0
-21 334 452 0
-27 -349 370 0
173 334 -360 0
223 380 456 0
-44 220 -490 0
10 135 -139 0
-113 280 370 0
-172 -337 421 0
107 265 299 0
-354 432 -458 0
209 -380 492 0
62 308 310 0
65 160 388 0
-15 -215 266 0
64 -351 -481 0
-1 -74 -188 0
-106 -209 452 0
-22 -230 -239 0
18 -261 280 0
198 -420 -433 0
60 171 -439 0
-73 -173 435 0
219 -327 476 0
-13 -229 -444 0
-256 279 484 0
-133 181 333 0
-42 -221 -331 0
125 -352 437 0
100 -241 -422 0
236 -318 365 0
-126 230 -446 0
-84 -349 -493 0
-10 -126 -434 0
-152 264 308 0
-161 -230 477 0
-28 -210 288 0
-59 -236 476 0
135 245 -279 0
-130 -207 -470 0
-286 -369 500 0
7 -241 -296 0
-90 95 224 0
2 -39 349 0
281 484 -491 0
284 -451 496 0
-58 -165 250 0
-65 171 -363 0
146 -278 -409 0
25 74 -389 0
-158 304 -450 0
32 293 448 0
-22 202 209 0
-128 -129 380 0
-118 -248 446 0
14 -366 474 0
-121 157 -250 0
193 353 391 0
-201 -279 -356 0
51 -376 474 0
-139 173 -306 0
-264 267 408 0
-95 215 -473 0
-211 351 365 0
69 315 -363 0
-255 315 447 0
-1 -420 490 0
-24 -140 395 0
124 210 400 0
-76 -181 317 0
164 304 -330 0
-52 92 430 0
-22 -98 -498 0
8 286 -323 0
-132 392 -454 0
-45 250 301 0
-10 -88 403 0
-18 -38 230 0
137 -227 -397 0
278 373 -449 0
-23 79 -182 0
-223 300 386 0
-38 132 469 0
294 -344 402 0
-69 -74 176 0
-21 53 272 0
-19 42 399 0
67 -208 460 0
281 404 -451 0
340 353 -422 0
124 -209 -374 0
237 -286 -439 0
245 -338 451 0
219 436 -459 0
-469 -482 -489 0
-46 -262 -464 0
29 -203 -446 0
-86 100 484 0
73 129 489 0
-233 -367 -395 0
-58 111 -344 0
144 -166 367 0
-71 130 -381 0
11 -213 359 0
-144 -169 -430 0
81 99 290 0
112 124 438 0
-291 -316 381 0
-101 -296 379 0
42 271 310 0
-117 -189 -474 0
194 314 454 0
342 348 -378 0
-88 251 394 0
-130 -153 315 0
-157 244 -438 0
-250 -374 -450 0
362 -419 441 0
14 -234 -272 0
-8 -62 -296 0
-135 -285 -332 0
-3 -166 -379 0
-13 164 -275 0
-335 370 -415 0
29 -282 -487 0
148 -290 403 0
-202 401 -458 0
-137 -254 404 0
-31 -34 -441 0
57 -201 454 0
-91 320 -420 0
70 384 461 0
2 3 -82 0
-56 -331 481 0
24 33 -399 0
125 -206 291 0
107 164 383 0
-251 279 347 0
281 320 448 0
-153 -157 319 0
338 341 -430 0
54 -98 121 0
182 239 301 0
-31 153 -220 0
-54 64 -71 0
62 -118 -144 0
66 317 -362 0
-121 -130 443 0
55 -195 -378 0
-7 -252 -297 0
-188 -229 268 0
68 119 -384 0
-229 274 486 0
-105 117 436 0
182 -446 485 0
181 236 -385 0
-136 237 243 0
91 -222 -436 0
-39 -127 -223 0
11 -259 -277 0
89 301 -361 0
-77 175 497 0
142 -192 -447 0
396 -397 -425 0
47 91 130 0
-56 81 -104 0
127 265 307 0
399 -417 -496 0
249 -397 417 0
-55 -57 182 0
91 -255 310 0
64 -406 -449 0
-49 270 321 0
-81 -147 -175 0
64 227 -262 0
-49 -172 312 0
-277 344 422 0
117 -131 211 0
11 -401 409 0
13 -339 -371 0
119 188 492 0
69 -122 237 0
-103 -407 -409 0
-196 -278 339 0
-60 203 -498 0
-75 -260 -362 0
-29 165 -209 0
48 -228 275 0
-284 302 -420 0
37 206 -445 0
144 246 -462 0
262 313 -352 0
9 43 -271 0
196 -326 -402 0
163 -181 426 0
90 302 326 0
-23 -151 164 0
-8 -378 -496 0
390 460 -500 0
-195 405 -476 0
-177 -188 336 0
-219 298 389 0
-3 -323 420 0
73 -119 -146 0
55 172 -417 0
11 93 331 0
52 -156 -223 0
57 353 369 0
-62 304 451 0
-95 -305 417 0
16 274 279 0
7 -85 -145 0
24 -252 374 0
160 303 380 0
339 359 -383 0
-5 -184 -274 0
-10 72 -412 0
42 -474 -492 0
-206 -315 433 0
76 -242 -414 0
67 121 258 0
57 156 177 0
118 293 -325 0
-5 167 444 0
-166 -178 244 0
-309 468 495 0
116 211 414 0
-56 -211 345 0
50 -135 312 0
129 -283 374 0
-309 429 -495 0
-43 178 -184 0
20 -90 278 0
32 -122 -187 0
-128 -263 -373 0
79 -112 215 0
69 305 328 0
-336 429 449 0
-284 333 457 0
279 -283 -353 0
67 124 -306 0
147 272 -432 0
-41 -261 437 0
-337 -416 473 0
-152 -397 -479 0
-243 266 316 0
130 -384 -412 0
-344 397 458 0
-85 206 218 0
111 377 -463 0
37 -243 284 0
-337 -394 -431 0
-127 283 -364 0
-66 322 402 0
198 214 -409 0
-110 -228 373 0
249 -306 495 0
59 -365 -374 0
43 246 497 0
-26 48 149 0
-187 -247 388 0
-238 259 359 0
122 -169 -294 0
-218 -268 345 0
8 -159 279 0
299 -405 -411 0
-343 -384 469 0
-53 164 354 0
-41 -44 -431 0
-20 -277 319 0
-91 -306 455 0
-163 195 -371 0
-33 58 367 0
127 392 471 0
-151 -321 -470 0
131 -206 -215 0
29 131 -490 0
-111 113 339 0
-222 -313 401 0
63 -73 257 0
55 336 434 0
74 -133 -401 0
186 -410 -440 0
-238 443 -449 0
138 148 -362 0
172 196 -351 0
-14 23 -197 0
67 181 264 0
-5 188 -266 0
61 -133 -313 0
68 340 481 0
210 361 490 0
-29 215 -356 0
104 140 -476 0
-66 67 216 0
30 -316 -455 0
-353 -379 -461 0
242 -335 413 0
-221 -324 414 0
32 -195 360 0
166 177 445 0
4 -86 -211 0
273 403 -497 0
-34 -352 415 0
-42 -325 460 0
200 221 360 0
-184 -341 -346 0
112 -198 456 0
-87 147 291 0
145 -305 -495 0
-38 -120 -217 0
-44 99 349 0
385 441 459 0
32 132 -201 0
53 231 458 0
-214 280 -370 0
68 -167 459 0
63 349 -430 0
225 291 -390 0
59 167 487 0
285 330 -497 0
-41 -311 -369 0
-122 274 -474 0
42 411 499 0
-104 -380 -493 0
176 414 -453 0
21 88 394 0
288 -347 -408 0
80 387 -434 0
-99 -183 252 0
-269 296 417 0
-26 111 348 0
78 -195 242 0
43 -296 494 0
-11 440 473 0
221 227 -399 0
49 -106 -222 0
272 349 -496 0
-135 -341 -489 0
20 -114 321 0
-214 -389 -494 0
-184 244 -421 0
194 327 499 0
-97 -342 -429 0
159 174 -350 0
73 218 455 0
-83 280 450 0
-71 172 -258 0
71 198 -473 0
-54 -249 431 0
-32 -145 473 0
30 -257 366 0
-69 -101 432 0
156 290 307 0
-57 -192 -336 0
-58 -90 -276 0
8 -124 -224 0
-88 287 -482 0
204 -294 -490 0
287 369 -427 0
13 148 176 0
-163 303 428 0
88 187 469 0
182 416 -427 0
-215 218 341 0
-236 252 258 0
193 -217 -460 0
127 255 341 0
-230 319 339 0
85 -281 -434 0
-82 -345 -398 0
-155 -180 -325 0
-13 -243 427 0
-113 133 -138 0
5 130 -228 0
-204 256 -428 0
-117 358 -366 0
48 248 455 0
-49 -450 462 0
-35 186 -351 0
26 311 454 0
15 -57 -165 0
-32 -341 -398 0
-37 -300 -447 0
68 -298 314 0
87 149 155 0
-274 302 461 0
-10 -192 -205 0
-93 272 -442 0
170 213 -220 0
-18 -43 -455 0
-87 91 -180 0
139 -151 492 0
62 -101 384 0
89 374 465 0
54 -145 374 0
-48 -149 -158 0
326 -429 -448 0
128 226 -310 0
-22 -421 490 0
65 -298 469 0
31 89 171 0
-245 -286 -382 0
181 209 -351 0
3 -193 -383 0
-351 -433 -460 0
-7 -246 -491 0
308 359 442 0
-173 -259 470 0
-184 398 -417 0
88 -128 -222 0
-251 -360 474 0
-205 -335 435 0
-12 288 -315 0
-185 296 -376 0
-82 -152 448 0
48 -112 -163 0
-71 312 394 0
-9 -430 496 0
13 86 238 0
246 325 376 0
220 -250 -279 0
-55 -59 342 0
18 244 -487 0
-203 -232 -410 0
193 333 -500 0
-33 -305 -434 0
54 62 -367 0
-242 -271 -326 0
234 441 -444 0
-14 -59 96 0
-97 -416 -468 0
-98 -291 -481 0
9 300 -376 0
-140 330 397 0
29 223 -306 0
109 -312 -362 0
232 -272 476 0
24 -110 486 0
81 -174 457 0
115 -140 286 0
274 -276 -479 0
-103 205 376 0
94 336 -339 0
414 -431 437 0
-33 341 429 0
144 211 -490 0
-187 -331 437 0
176 -472 489 0
55 102 447 0
208 457 -487 0
378 380 485 0
79 -120 -168 0
-98 -285 340 0
-60 243 270 0
17 63 -186 0
76 316 418 0
-207 408 481 0
20 77 -89 0
44 -101 427 0
136 -164 -332 0
11 38 209 0
12 -185 -274 0
-101 409 -477 0
-225 432 -472 0
-144 -217 -268 0
-79 141 424 0
-200 257 266 0
-128 278 309 0
-42 119 347 0
-205 263 379 0
-2 -215 253 0
-150 -206 431 0
178 -242 -361 0
-111 228 347 0
334 -364 -470 0
-3 246 305 0
-204 -205 493 0
43 -64 148 0
-10 136 -159 0
-116 -384 439 0
-47 297 -464 0
-111 -315 497 0
-137 304 -312 0
-48 67 -237 0
11 -184 347 0
15 -259 370 0
-39 -139 -347 0
-10 363 498 0
322 -342 -442 0
137 156 -303 0
87 -183 -226 0
126 -268 312 0
-260 -320 469 0
121 320 -392 0
40 -247 -305 0
-143 -304 338 0
-132 -421 473 0
112 379 386 0
88 -214 368 0
261 -422 -456 0
-85 -407 -442 0
-36 -467 489 0
69 -73 161 0
11 -154 386 0
-58 126 151 0
11 -66 -476 0
-139 -204 213 0
138 279 314 0
-77 209 361 0
-111 114 360 0
50 305 -364 0
30 -35 236 0
41 194 277 0
-21 -117 269 0
-175 205 306 0
83 -155 -449 0
-17 38 -435 0
348 -371 443 0
-41 -188 318 0
-43 115 157 0
-203 -315 432 0
-74 -251 291 0
-76 -295 -368 0
-221 -431 -493 0
66 -310 460 0
44 -189 -400 0
53 92 -484 0
50 213 -371 0
29 101 248 0
128 -211 403 0
5 -195 340 0
-64 383 -480 0
-334 -340 386 0
-65 -316 -383 0
-135 -338 -445 0
-110 -130 365 0
-244 -283 -304 0
99 189 445 0
352 -415 -448 0
20 68 -210 0
11 -432 438 0
74 -134 377 0
19 21 -434 0
11 -126 -215 0
-88 -195 454 0
-51 199 247 0
-39 -62 435 0
120 251 467 0
-177 -227 256 0
-9 -147 -304 0
229 269 -353 0
-31 -189 -438 0
-25 212 -489 0
153 -291 -380 0
-9 -71 280 0
-109 302 -384 0
36 -329 397 0
-162 -201 357 0
168 -269 477 0
10 -21 427 0
-164 175 -348 0
108 -436 -454 0
-63 210 -370 0
-83 -275 -366 0
-103 -254 -263 0
66 220 419 0
255 345 453 0
354 -373 464 0
-129 166 -492 0
247 -285 -336 0
91 -96 369 0
214 -409 -481 0
16 111 -266 0
48 339 344 0
-99 153 -294 0
-69 163 300 0
108 204 -390 0
-74 -122 -374 0
-16 -66 288 0
4 -172 -474 0
-160 -346 497 0
96 -196 423 0
359 -395 396 0
-116 -232 -365 0
347 399 452 0
-179 389 -484 0
145 229 -399 0
188 -361 366 0
-234 -236 -317 0
-128 155 292 0
-38 -92 -356 0
61 260 335 0
97 165 419 0
-54 147 -388 0
27 111 -453 0
-229 -270 274 0
-28 -367 -489 0
-341 435 -461 0
-93 114 485 0
99 -136 500 0
96 125 323 0
5 330 -464 0
-3 -130 346 0
196 -271 275 0
-272 330 408 0
-33 -132 -149 0
204 326 -459 0
-121 219 467 0
-178 384 437 0
-27 65 318 0
5 -25 160 0
-197 246 453 0
157 193 -333 0
-7 433 -470 0
8 -73 475 0
206 227 398 0
-289 -351 -499 0
66 141 -167 0
-33 59 94 0
255 288 317 0
199 233 -283 0
-142 284 -299 0
57 278 480 0
-30 -201 -350 0
-227 -332 -363 0
94 110 -456 0
185 362 -466 0
143 220 -452 0
-40 -118 138 0
-214 282 -306 0
-52 -329 -430 0
-3 252 -332 0
171 233 -442 0
205 -301 -312 0
-156 -334 357 0
209 -354 463 0
29 -150 340 0
-93 98 -395 0
68 288 -380 0
-137 -180 -316 0
239 -299 447 0
204 314 399 0
252 346 439 0
-326 369 -486 0
-56 173 -187 0
-129 283 326 0
14 20 -476 0
293 422 -471 0
-310 -366 490 0
-36 -54 -242 0
-20 -56 310 0
52 -327 420 0
-222 402 455 0
353 388 -492 0
-144 -183 388 0
-125 -245 435 0
215 -236 300 0
-80 -165 474 0
87 225 -311 0
-228 250 -347 0
23 126 194 0
60 -182 287 0
81 205 -433 0
-88 151 -222 0
212 -275 -458 0
266 287 -345 0
-63 -65 258 0
11 176 -392 0
115 -305 -351 0
-167 336 -474 0
434 447 -479 0
-120 -193 -329 0
-85 186 -307 0
-17 -147 -181 0
-33 40 -375 0
-150 356 409 0
130 -193 -464 0
110 -117 -468 0
-115 285 429 0
-177 387 460 0
106 -166 354 0
185 -272 -393 0
-228 257 -347 0
79 -254 355 0
-176 254 -455 0
-50 282 319 0
-82 133 -366 0
-288 -338 359 0
67 -79 -393 0
43 295 430 0
-78 -225 -373 0
-68 492 493 0
-151 -288 333 0
193 -453 -467 0
66 -214 -312 0
211 382 -447 0
-24 -66 -84 0
-65 -280 341 0
-98 -409 -498 0
-122 -184 345 0
103 -219 266 0
-1 65 -127 0
-79 -332 -351 0
61 176 457 0
-68 373 488 0
117 -378 -415 0
48 377 -483 0
-159 354 384 0
70 90 161 0
-240 312 -334 0
-70 247 368 0
93 -188 303 0
-2 -49 175 0
193 -195 -319 0
-146 -347 -350 0
-65 -86 -315 0
14 85 475 0
84 -130 -341 0
-117 -395 -429 0
173 -332 -341 0
-5 -266 -267 0
356 -364 376 0
209 -278 -285 0
31 428 496 0
58 -82 270 0
-389 -442 -480 0
26 172 497 0
-55 411 461 0
-70 285 404 0
-59 131 253 0
-208 245 490 0
126 188 391 0
53 287 -341 0
8 -61 -80 0
88 268 -426 0
-217 -227 -317 0
-80 155 239 0
197 305 -490 0
-15 -381 385 0
277 344 371 0
230 -316 -345 0
312 -314 442 0
-118 -218 -264 0
-18 278 436 0
344 -363 395 0
-92 229 242 0
264 294 458 0
-80 -105 187 0
-269 -389 -419 0
-159 -226 281 0
-186 -214 385 0
75 -197 -224 0
197 257 400 0
2 -85 107 0
29 -338 -484 0
28 83 313 0
188 -359 -445 0
71 140 490 0
147 152 -417 0
-149 -358 -396 0
121 260 -324 0
-79 -109 -459 0
358 421 430 0
-148 -317 416 0
-246 325 -432 0
85 -335 -483 0
-11 -107 365 0
-47 -88 -392 0
214 351 -408 0
-110 -209 380 0
85 -112 -206 0
-1 -61 -163 0
-101 -337 411 0
-12 -58 474 0
135 206 310 0
248 -425 -442 0
-156 -285 341 0
8 24 458 0
-126 -385 454 0
-18 -318 385 0
10 -182 226 0
-335 -380 -388 0
14 -150 -252 0
15 -41 -84 0
170 235 252 0
32 -232 425 0
-7 66 389 0
165 -319 -397 0
13 -289 -452 0
-264 313 -379 0
-44 -143 436 0
-165 -174 -231 0
-292 318 -341 0
312 425 -483 0
3 -88 145 0
-123 -220 -347 0
124 139 -426 0
-16 -41 107 0
299 -407 445 0
234 -428 433 0
-299 -379 464 0
-43 154 227 0
98 430 458 0
180 364 460 0
-102 153 326 0
-368 -404 418 0
59 -179 415 0
116 154 -248 0
-131 -298 -333 0
-21 262 479 0
-22 -273 -326 0
-81 203 320 0
-144 166 481 0
12 343 420 0
158 -167 -491 0
-189 -193 457 0
-226 316 -390 0
74 193 -448 0
-341 -356 426 0
13 -54 465 0
-91 -227 -437 0
18 214 436 0
-212 318 -408 0
19 45 411 0
192 337 -476 0
49 -286 -490 0
-221 326 358 0
-176 -390 -495 0
49 53 -330 0
108 -154 -308 0
14 -200 375 0
44 336 372 0
-10 -55 260 0
-85 202 -463 0
2 -131 148 0
274 342 -362 0
54 -63 356 0
-179 477 493 0
47 -262 275 0
31 130 -435 0
-150 -398 -500 0
18 158 -351 0
67 -217 -442 0
-270 274 -483 0
236 330 472 0
-182 222 328 0
-135 -196 -361 0
73 191 -337 0
37 167 374 0
35 189 -274 0
-53 -305 390 0
-62 293 420 0
-18 165 371 0
-365 377 488 0
-142 361 458 0
-40 -163 -429 0
118 -325 -438 0
-11 -275 329 0
-205 -298 -448 0
54 85 -156 0
127 190 278 0
102 234 -419 0
-291 -366 -381 0
-1 238 -313 0
94 150 -423 0
-154 -272 -371 0
33 -118 350 0
25 63 193 0
-44 123 491 0
59 -196 -456 0
71 424 464 0
54 61 111 0
259 351 463 0
-66 -136 -292 0
20 -246 -498 0
-175 -330 -354 0
141 257 383 0
107 275 343 0
176 184 -336 0
-232 -266 362 0
34 -334 382 0
-20 191 311 0
92 -301 370 0
-142 267 398 0
61 351 -451 0
214 305 348 0
-11 184 -436 0
-33 142 -225 0
210 395 -482 0
-51 190 -357 0
-107 286 409 0
-25 -382 490 0
-55 198 370 0
-116 -121 -358 0
60 -221 497 0
426 459 -471 0
377 -468 -472 0
-65 378 437 0
-79 234 -302 0
108 -278 -470 0
-57 -89 372 0
292 418 498 0
177 453 457 0
186 274 -397 0
144 274 350 0
135 -277 -354 0
230 264 321 0
-22 163 304 0
169 -251 -307 0
-90 330 430 0
12 189 442 0
-20 124 -203 0
-148 225 437 0
-144 160 -353 0
-59 -123 169 0
389 470 -494 0
-22 212 492 0
-7 -408 437 0
15 -442 496 0
-23 200 419 0
127 268 -340 0
331 373 488 0
386 419 -487 0
-9 -58 -163 0
198 401 463 0
-82 360 -371 0
-156 272 275 0
-88 117 -289 0
-43 68 221 0
-46 276 -389 0
293 -399 -444 0
325 365 471 0
17 163 -372 0
-54 327 -471 0
-229 231 -313 0
-86 94 426 0
27 -204 -487 0
28 -449 452 0
148 -441 -460 0
108 166 -279 0
-125 -361 -450 0
-170 -437 -500 0
388 430 491 0
25 -57 -148 0
19 -49 146 0
182 -273 -298 0
-135 -228 -293 0
5 -48 -381 0
-219 -243 -439 0
159 -166 174 0
176 -220 -263 0
139 -183 293 0
-43 -366 -457 0
-141 -180 453 0
27 51 -59 0
-65 94 270 0
60 -280 -456 0
-29 -70 -169 0
-124 229 -265 0
64 102 -480 0
-295 363 -471 0
-31 -127 -276 0
-107 294 336 0
-3 -212 -428 0
-156 -304 -498 0
-206 -309 361 0
217 -260 -267 0
6 181 205 0
-61 -215 353 0
305 -353 -399 0
21 -214 433 0
112 -326 -445 0
-58 167 -243 0
-68 135 -194 0
38 -285 436 0
-24 263 -330 0
-129 -168 -184 0
-262 -321 443 0
43 107 -170 0
62 393 462 0
125 -145 -450 0
320 364 -492 0
-174 -343 -411 0
-383 385 474 0
-178 308 -383 0
32 -351 446 0
158 311 317 0
-58 -62 218 0
3 -174 -264 0
54 -224 491 0
129 -434 482 0
68 -352 -440 0
124 147 201 0
-208 363 -376 0
150 -265 -386 0
-160 410 -414 0
-333 -348 372 0
-18 -118 -176 0
40 81 142 0
136 276 344 0
-8 -232 288 0
-42 -123 -331 0
19 324 -377 0
372 -406 498 0
-283 388 -433 0
-28 294 372 0
-57 103 212 0
-22 -210 -451 0
-71 77 -470 0
-433 -443 -467 0
340 -417 -460 0
-243 -270 365 0
170 201 -247 0
-180 234 -450 0
291 446 -485 0
-182 293 440 0
-292 431 -440 0
-39 183 429 0
263 417 437 0
86 -269 -496 0
-207 335 470 0
110 290 -446 0
-254 -264 -297 0
-78 -191 417 0
-376 -449 455 0
71 152 -245 0
-31 -278 459 0
293 375 378 0
-36 -135 -138 0
47 -258 395 0
350 376 423 0
-340 -441 -458 0
-312 -419 -421 0
-282 -363 -439 0
68 -125 -132 0
20 -368 446 0
110 -249 -426 0
77 96 -156 0
34 -75 305 0
-347 350 -416 0
308 374 389 0
-257 -325 341 0
127 -173 -251 0
285 402 474 0
262 -347 421 0
128 200 476 0
362 -390 -405 0
40 261 -292 0
60 -270 -461 0
-21 156 300 0
-184 -240 412 0
59 134 -214 0
-90 354 -431 0
-315 316 399 0
141 143 -383 0
-115 -125 -365 0
195 -376 -429 0
-20 129 -426 0
36 -455 -484 0
-63 407 -438 0
-1 267 433 0
-91 262 407 0
213 -243 371 0
148 -283 439 0
-52 -55 -170 0
-115 -130 -379 0
-8 37 263 0
14 150 -360 0
-177 -199 -456 0
-193 -242 -406 0
86 103 473 0
247 288 357 0
84 256 -380 0
-8 -212 487 0
-55 -79 468 0
-176 467 -487 0
-65 -83 175 0
-149 -346 360 0
355 446 -476 0
-156 -329 400 0
63 -76 -249 0
-26 248 -337 0
29 212 321 0
12 25 -253 0
-167 379 386 0
18 151 -361 0
-20 -167 -206 0
175 193 -424 0
-231 241 -258 0
285 -335 -403 0
-193 -290 -461 0
103 -347 378 0
-101 -450 -471 0
-130 -269 -411 0
224 -293 -410 0
107 -421 436 0
-133 343 -447 0
14 89 445 0
9 -265 411 0
-207 -381 -394 0
216 -407 -440 0
92 -165 184 0
96 312 -368 0
187 -202 -375 0
-111 226 306 0
-155 -410 427 0
-51 -202 269 0
-22 -201 432 0
-53 -189 -265 0
-108 -278 -311 0
-113 -162 -322 0
-198 262 333 0
-93 -380 -419 0
72 -232 422 0
-223 270 -366 0
-301 -331 458 0
9 281 338 0
7 -296 441 0
149 182 347 0
-14 321 -360 0
-67 231 275 0
-25 150 -447 0
53 -168 -222 0
54 -126 -444 0
68 138 487 0
135 -196 207 0
85 286 303 0
136 -243 -255 0
-1 335 -475 0
78 -411 421 0
-24 93 347 0
-60 -188 468 0
321 455 500 0
176 288 -476 0
-45 -61 -461 0
-312 350 447 0
-64 277 389 0
-78 274 489 0
-64 -148 -392 0
162 321 347 0
33 -34 320 0
-32 110 -427 0
-219 309 -484 0
26 -252 396 0
117 -149 -162 0
-237 -274 -418 0
36 109 227 0
374 390 475 0
-69 -390 499 0
-389 -400 -426 0
-85 409 451 0
-220 287 410 0
47 -54 -475 0
-58 -249 -275 0
117 436 500 0
166 -179 -242 0
-19 -312 494 0
240 -431 -458 0
27 193 -300 0
87 132 267 0
-75 154 353 0
334 483 494 0
-189 -455 469 0
135 -250 -442 0
-33 -96 -366 0
30 -118 -256 0
16 -50 -418 0
86 -291 398 0
131 212 483 0
182 -208 -299 0
-95 203 283 0
-2 -106 296 0
-38 348 -408 0
-146 219 -325 0
127 133 269 0
64 246 341 0
-75 -429 433 0
-6 239 -308 0
-108 169 324 0
184 257 -321 0
87 289 408 0
-175 -184 226 0
-178 233 -500 0
-117 332 -458 0
46 120 157 0
191 202 357 0
253 -292 352 0
33 300 463 0
-183 325 404 0
163 -341 -397 0
86 140 162 0
-11 -426 443 0
96 119 370 0
-28 221 409 0
2 -185 -253 0
150 -272 -350 0
156 -460 463 0
304 459 -483 0
241 245 365 0
313 -352 380 0
111 -222 -421 0
-165 302 -444 0
101 134 356 0
56 -390 430 0
-260 -317 426 0
-252 337 380 0
139 -229 409 0
-190 -209 -265 0
-40 -141 296 0
89 -264 351 0
238 426 -486 0
-27 84 -357 0
37 -110 397 0
-6 243 -436 0
-58 -132 253 0
-20 -277 -403 0
-106 -298 395 0
120 -213 387 0
245 318 385 0
-206 270 469 0
128 -275 -414 0
-68 87 370 0
-205 -421 -485 0
-159 298 430 0
414 -451 -491 0
-13 102 259 0
-138 154 302 0
-281 -334 437 0
-80 -276 -416 0
16 400 -482 0
16 272 311 0
87 268 338 0
45 126 -470 0
-4 27 57 0
33 166 344 0
144 -199 457 0
-17 78 -295 0
118 246 -365 0
124 -346 -470 0
-54 -192 -470 0
179 225 471 0
40 208 -233 0
142 179 -352 0
-271 -325 -460 0
-174 476 -490 0
123 160 324 0
-181 327 456 0
-102 130 -373 0
269 -298 345 0
167 262 499 0
-201 334 342 0
-34 -314 486 0
-196 -296 -358 0
149 349 500 0
-190 -214 490 0
349 -449 -495 0
-162 166 197 0
-51 -75 -244 0
-262 305 416 0
67 210 -345 0
-328 -365 420 0
26 -161 -300 0
245 297 -399 0
73 -193 -266 0
15 -197 -318 0
177 437 -499 0
-316 378 -492 0
137 -292 -496 0
137 -359 497 0
80 -159 -232 0
5 213 -493 0
-66 193 466 0
-1 -175 -272 0
244 -368 437 0
133 206 -484 0
-39 298 -428 0
