c description: Random 3-CNF over 500 variables and 2129 clauses
c generator: CNFgen (0.9.6)
c copyright: (C) 2012-2026 Massimo Lauria <massimo.lauria@uniroma1.it>
c url: https://massimolauria.net/cnfgen
c command line: cnfgen randkcnf 3 500 2129
c
p cnf 500 2129
43 -153 203 0
46 97 435 0
-36 132 -366 0
-77 -115 208 0
-111 -332 426 0
29 -161 405 0
195 -336 -443 0
-48 -114 423 0
-218 -363 366 0
-41 -449 -474 0
-345 398 440 0
15 -115 -127 0
10 -140 148 0
-253 -341 -363 0
-44 -138 -284 0
89 97 150 0
-3 315 477 0
321 -332 -374 0
-125 -395 -410 0
-40 174 -358 0
-78 -150 223 0
53 136 -252 0
58 296 415 0
225 416 -433 0
-194 412 -423 0
-285 -341 -476 0
-196 -262 -408 0
30 154 -206 0
-345 356 393 0
-17 -302 -490 0
45 325 395 0
59 150 373 0
-52 -135 352 0
-249 -287 351 0
156 -190 491 0
37 -326 422 0
121 144 304 0
-123 -198 497 0
-182 261 -399 0
-321 415 -494 0
120 178 -202 0
168 350 -490 0
-122 424 456 0
46 -348 -410 0
170 347 -451 0
-72 -113 -364 0
3 -162 -452 0
341 431 -459 0
170 -208 -456 0
145 356 412 0
-23 143 -404 0
40 -339 -376 0
-84 -303 368 0
143 -217 232 0
-64 -72 -180 0
-16 237 -242 0
205 389 392 0
-62 -268 385 0
-1 -246 -412 0
-348 414 429 0
111 -208 407 0
203 346 399 0
-62 -292 307 0
-53 223 325 0
64 -225 -240 0
-319 -414 431 0
121 -245 357 0
36 98 -177 0
38 236 337 0
141 235 -391 0
-366 378 -443 0
206 299 489 0
-291 404 -408 0
-367 -422 -476 0
-23 404 470 0
-57 -163 -460 0
85 -274 374 0
-8 261 -358 0
-38 -219 -233 0
-10 66 431 0
-119 -198 -364 0
184 244 254 0
-320 351 -450 0
17 124 271 0
179 -322 347 0
157 169 -465 0
-30 111 -293 0
110 325 384 0
18 -308 444 0
9 134 -221 0
125 -143 447 0
-270 -355 -474 0
175 194 322 0
103 -143 248 0
56 -119 -133 0
122 -383 -425 0
31 38 217 0
-68 163 -174 0
-191 -271 428 0
26 72 282 0
23 28 -159 0
-74 -87 178 0
100 -232 -319 0
27 -38 -354 0
110 391 459 0
-208 229 -427 0
-170 -284 320 0
173 288 434 0
-107 195 248 0
-61 372 -462 0
-73 157 -196 0
-94 -135 482 0
45 -158 206 0
-301 359 389 0
-24 -447 -491 0
-74 153 247 0
-96 -224 479 0
169 252 330 0
2 -137 -187 0
-98 -436 481 0
-221 -249 -341 0
-79 208 -374 0
-12 -161 267 0
-113 152 -379 0
-209 -229 240 0
83 -186 432 0
205 339 -371 0
113 220 -350 0
314 391 436 0
-172 281 323 0
-382 393 -405 0
-215 307 322 0
61 -102 208 0
-171 -245 -319 0
102 -288 457 0
179 -279 472 0
-30 -91 448 0
-343 392 401 0
125 223 -375 0
-25 159 -253 0
97 261 381 0
20 480 -500 0
164 -247 -461 0
346 -429 449 0
383 414 424 0
47 -73 390 0
378 -435 -455 0
-181 -294 483 0
-81 -113 -446 0
-97 220 -323 0
175 -231 453 0
116 -323 -404 0
-11 -65 -303 0
104 125 -440 0
22 -214 477 0
-54 -312 -452 0
-88 -210 -251 0
-83 -396 -480 0
60 -74 485 0
-294 405 -468 0
168 -218 325 0
3 -62 480 0
-145 297 -350 0
-78 -146 -446 0
190 -378 405 0
224 226 -438 0
-423 -427 478 0
99 346 389 0
95 -129 -204 0
137 189 -430 0
-170 -214 447 0
66 92 -463 0
-174 318 -428 0
-95 97 134 0
298 -420 421 0
80 -150 169 0
-224 256 465 0
109 278 424 0
-252 -300 -482 0
-463 -470 473 0
-100 404 -433 0
-229 256 -444 0
-90 234 466 0
-35 217 360 0
69 91 -417 0
-21 224 455 0
362 459 474 0
90 256 -450 0
-355 398 466 0
-42 396 -488 0
57 264 442 0
-105 309 432 0
198 -476 478 0
23 -82 -410 0
53 -74 -167 0
-344 376 -415 0
15 -363 369 0
85 105 -432 0
171 -384 -485 0
6 176 -436 0
340 -346 -357 0
-97 -133 -423 0
212 -329 -356 0
-117 -190 -273 0
-100 -400 404 0
-109 -239 -499 0
-34 50 -260 0
38 -154 -188 0
249 261 -390 0
-61 -259 -264 0
31 -107 -279 0
113 381 424 0
-1 83 486 0
-79 -90 113 0
33 109 -379 0
160 -340 -455 0
87 205 -229 0
350 399 489 0
152 267 -333 0
66 366 -428 0
-64 359 -441 0
-102 -176 -495 0
200 -207 285 0
-154 -214 -408 0
-40 254 -359 0
96 -276 -411 0
-135 -319 -415 0
-149 -185 464 0
257 268 382 0
-353 404 -484 0
-175 369 413 0
95 -239 -332 0
81 164 -483 0
-127 -384 469 0
-143 331 -383 0
-17 -406 -410 0
168 414 424 0
143 146 275 0
-18 253 367 0
-6 -95 -210 0
59 -379 467 0
143 -189 360 0
-253 372 393 0
159 178 228 0
47 -175 -406 0
-69 211 293 0
41 -119 142 0
191 -314 -342 0
63 190 214 0
181 298 484 0
-11 120 243 0
99 165 497 0
70 -230 272 0
-12 -154 265 0
-281 464 492 0
73 132 170 0
259 407 -408 0
212 231 374 0
44 249 -259 0
-71 -72 328 0
228 326 448 0
279 -299 -371 0
309 349 424 0
90 -171 -267 0
-57 388 -407 0
247 283 364 0
-126 151 -439 0
232 -257 -277 0
-135 137 -188 0
-98 259 -360 0
115 -297 -396 0
154 -199 236 0
100 176 254 0
-1 150 323 0
-10 -200 -235 0
352 -383 453 0
106 199 -254 0
69 313 455 0
-314 -362 388 0
221 315 -396 0
171 311 358 0
36 208 -394 0
-83 -117 436 0
-72 -82 266 0
218 -248 287 0
311 428 487 0
-167 415 -446 0
170 177 281 0
101 -251 500 0
4 232 349 0
-304 -412 -452 0
28 61 232 0
-38 57 -424 0
-36 399 435 0
10 183 -277 0
295 340 476 0
99 -380 -393 0
-51 -193 -385 0
-188 225 -324 0
-8 243 361 0
-82 388 -429 0
139 -296 426 0
-235 -389 457 0
-312 -357 -463 0
-92 274 319 0
-118 202 285 0
109 -377 -494 0
386 -447 -482 0
-11 133 347 0
-89 321 -325 0
-40 -148 -370 0
-124 281 -410 0
-176 -279 358 0
-116 -315 -364 0
-10 -318 -456 0
129 472 -494 0
34 -318 432 0
44 -168 484 0
23 80 327 0
115 -191 -394 0
-138 161 -461 0
-64 -161 -248 0
118 169 -450 0
235 -300 367 0
122 -144 -212 0
42 92 323 0
-309 365 391 0
49 -300 396 0
-189 -363 484 0
-134 209 -480 0
-124 -233 -274 0
-99 -419 -429 0
-182 215 441 0
-290 302 483 0
-299 431 451 0
75 -183 358 0
27 142 201 0
-100 271 385 0
-83 214 -287 0
196 294 -427 0
33 91 -152 0
149 -163 265 0
30 -36 351 0
-220 -419 421 0
158 347 -433 0
-67 80 -201 0
29 328 411 0
-103 -160 -164 0
-6 -165 475 0
-1 42 477 0
-88 92 113 0
260 289 332 0
-239 246 366 0
71 -103 -277 0
-32 97 -116 0
-19 321 -333 0
-68 117 311 0
-377 -442 447 0
-79 -144 347 0
139 360 -435 0
223 239 -374 0
13 149 -255 0
80 108 -417 0
310 -350 -402 0
-63 -124 -425 0
35 -104 -355 0
-257 -302 477 0
-32 -299 407 0
6 165 280 0
-23 -142 -494 0
-172 -195 -489 0
131 -308 -407 0
239 256 -279 0
195 -374 434 0
-243 381 495 0
160 285 473 0
124 215 -227 0
-219 -282 342 0
2 -25 53 0
-37 -190 250 0
-358 359 440 0
-63 -310 -342 0
-229 -410 432 0
-158 166 232 0
-97 459 -481 0
181 315 -431 0
18 -110 -477 0
-13 -128 396 0
-183 -203 345 0
-5 -182 -206 0
-134 -198 -279 0
39 262 266 0
57 -130 332 0
66 -324 -399 0
-419 428 472 0
-46 -221 -330 0
27 -58 486 0
77 -280 -472 0
308 -345 -441 0
123 -452 -498 0
-16 160 492 0
-326 327 -337 0
1 -145 -264 0
-53 121 387 0
116 -162 -228 0
-157 320 347 0
-67 367 -486 0
105 230 255 0
-148 -286 -444 0
-33 236 493 0
-63 -159 415 0
-241 340 -472 0
54 -172 -460 0
65 -372 392 0
-66 -214 -316 0
-283 -348 -407 0
-229 295 488 0
58 -343 -398 0
-78 -185 349 0
-294 -371 444 0
54 -203 326 0
242 291 416 0
186 289 463 0
-100 144 -225 0
16 121 367 0
-136 -198 249 0
130 396 -404 0
-78 -277 386 0
-93 -134 441 0
-149 227 476 0
-202 -339 415 0
79 228 295 0
246 -324 -352 0
-337 -432 477 0
-407 -418 -474 0
78 310 -395 0
198 -222 -263 0
-121 122 392 0
-242 311 -314 0
-143 281 -356 0
-31 194 417 0
111 -261 -370 0
-12 -207 288 0
53 -148 -389 0
162 271 418 0
-468 -477 486 0
11 -75 -157 0
-25 -47 161 0
-176 -321 456 0
-10 265 299 0
189 -380 -394 0
-70 120 406 0
107 462 488 0
-24 401 -423 0
109 366 -464 0
267 -308 -446 0
-58 249 -259 0
-227 -249 296 0
-235 450 -453 0
166 -228 422 0
93 375 396 0
102 302 489 0
149 -264 -310 0
-11 155 -371 0
16 387 -423 0
-63 -255 -444 0
30 -99 -363 0
41 185 473 0
-198 209 -482 0
138 -219 374 0
-86 -298 -469 0
-108 169 -299 0
54 366 485 0
336 -398 452 0
-73 -341 358 0
-175 -421 498 0
-263 -284 -302 0
-169 337 -423 0
153 217 311 0
159 163 -435 0
-33 57 169 0
155 423 -473 0
32 116 -224 0
-162 -259 340 0
-185 289 -492 0
187 -320 -340 0
-4 11 356 0
61 -175 -368 0
-99 230 -342 0
14 -121 431 0
302 -328 -475 0
25 -73 -98 0
-18 -313 430 0
-6 81 211 0
82 121 292 0
165 371 -433 0
-155 -232 390 0
191 326 333 0
-150 -324 427 0
-183 -284 292 0
-173 -304 -439 0
-42 200 295 0
57 221 -412 0
99 272 484 0
-35 85 377 0
115 377 436 0
-89 -92 467 0
-56 62 -138 0
40 -353 358 0
253 -410 465 0
-16 186 -230 0
287 338 492 0
-103 -250 -336 0
194 237 -262 0
41 -224 -356 0
53 297 423 0
199 222 -264 0
76 288 367 0
226 -233 320 0
213 -215 458 0
24 107 -476 0
196 -476 484 0
-97 -211 463 0
54 -139 -227 0
-125 339 494 0
60 -113 -438 0
-158 -482 494 0
-254 326 485 0
31 202 265 0
-304 355 465 0
-340 -399 464 0
75 -178 407 0
131 198 -393 0
326 364 -430 0
269 -279 -311 0
24 111 -165 0
-382 -402 494 0
182 -237 275 0
5 -452 -499 0
118 206 352 0
49 -145 407 0
-267 295 -429 0
182 -352 367 0
-363 377 494 0
-5 14 -272 0
-64 75 -308 0
63 68 496 0
152 250 412 0
17 253 -497 0
144 -180 -310 0
86 -346 486 0
-170 -209 -450 0
-76 -111 382 0
121 -302 -419 0
140 -271 341 0
72 -216 298 0
-28 169 -388 0
-103 110 -343 0
-267 -289 379 0
107 465 470 0
35 149 -266 0
-5 -40 -490 0
170 -291 446 0
91 310 403 0
395 451 -466 0
14 -174 416 0
17 -168 477 0
94 97 -221 0
-105 -277 -398 0
26 346 -403 0
245 -386 470 0
-69 -74 119 0
211 244 286 0
254 -272 -382 0
-113 -418 -484 0
174 -431 442 0
-92 -131 467 0
-150 -207 314 0
-53 -76 -165 0
-132 479 481 0
-120 -139 -379 0
223 237 290 0
4 -366 495 0
-233 386 421 0
367 487 -488 0
-55 -95 -441 0
63 160 -480 0
-158 203 239 0
26 -49 303 0
165 251 479 0
-85 439 491 0
-92 -323 471 0
140 178 -235 0
-171 344 -363 0
-61 -108 -164 0
-60 -132 255 0
52 99 173 0
114 -199 -397 0
-135 -173 -421 0
-177 -225 -452 0
-97 190 -258 0
44 100 469 0
41 -299 416 0
-255 -263 -419 0
75 210 279 0
132 -144 266 0
-7 -104 409 0
-146 -186 488 0
-44 -119 296 0
57 155 -484 0
301 468 483 0
-223 362 490 0
22 -100 -281 0
-49 304 -374 0
-212 296 -482 0
237 307 361 0
-119 -148 185 0
182 239 -368 0
-401 444 465 0
58 -67 72 0
217 -288 -411 0
-101 -333 -338 0
67 -357 -466 0
130 242 -428 0
208 269 -421 0
-95 -282 346 0
62 -359 -418 0
185 433 500 0
-156 -343 -487 0
11 148 167 0
-185 244 -348 0
-101 -163 361 0
160 281 -371 0
106 -165 260 0
290 302 -439 0
200 -270 399 0
120 253 -394 0
-278 294 -419 0
-58 363 -458 0
16 -70 -462 0
-76 -190 -466 0
-230 -297 388 0
-47 240 -459 0
48 55 185 0
69 -166 399 0
-412 -427 465 0
-140 195 -277 0
-104 258 299 0
-134 343 466 0
140 340 -348 0
75 -277 311 0
-372 446 465 0
95 200 399 0
57 95 -111 0
83 140 -149 0
33 -353 409 0
-30 -198 -460 0
-177 -273 -314 0
-160 246 335 0
30 61 300 0
-315 325 449 0
-143 -197 -419 0
131 326 -488 0
-56 202 383 0
160 182 193 0
-162 -285 -382 0
268 321 357 0
120 -196 -306 0
-140 143 -420 0
-25 -141 297 0
-19 21 -471 0
-185 -220 -322 0
-71 -138 227 0
-223 -230 334 0
51 87 -108 0
-147 -229 484 0
268 377 479 0
13 -140 391 0
21 -103 -200 0
30 -264 366 0
-13 -148 -359 0
-92 -307 313 0
-48 -136 -157 0
126 141 -296 0
-50 -241 -365 0
5 -133 -370 0
-97 -99 420 0
-87 -281 357 0
-296 364 -367 0
-3 268 -492 0
13 90 -349 0
2 141 287 0
-84 135 -236 0
-87 -203 376 0
-20 71 485 0
114 -268 339 0
-247 327 -473 0
35 82 -360 0
-44 145 174 0
-337 -422 -445 0
177 178 220 0
-73 134 485 0
180 -371 -400 0
290 368 -483 0
-101 -227 -277 0
-18 -71 -80 0
-30 -79 -392 0
-233 247 -338 0
-81 199 -271 0
-53 403 406 0
-257 -421 429 0
-203 243 -389 0
-112 -213 -491 0
174 -286 -345 0
8 -125 -274 0
184 -319 -454 0
167 -201 -375 0
-35 -140 377 0
130 -317 -392 0
-81 -97 -376 0
-92 -151 407 0
110 -380 -418 0
81 112 470 0
-59 -63 324 0
208 226 -234 0
-8 -276 -449 0
-361 362 -375 0
-135 -206 -230 0
151 185 408 0
-210 320 -467 0
268 391 498 0
168 176 329 0
-76 -247 277 0
130 -264 -406 0
-81 -220 -379 0
198 -374 410 0
52 196 205 0
67 -280 479 0
97 284 -366 0
-300 325 -441 0
-68 -125 185 0
107 173 -292 0
187 408 450 0
-169 412 -484 0
-301 -385 486 0
5 17 148 0
-25 -34 286 0
238 293 338 0
-365 399 -445 0
-143 412 423 0
234 257 329 0
-18 -326 -381 0
-294 -339 388 0
236 275 303 0
-272 387 406 0
-5 -198 473 0
-114 144 313 0
-210 248 466 0
-253 -344 469 0
67 -132 -340 0
268 -319 436 0
27 148 -403 0
-71 -78 -407 0
7 205 385 0
-294 -308 -388 0
-26 306 380 0
84 -103 -255 0
309 -409 -455 0
-71 76 262 0
205 386 -462 0
55 -130 -197 0
-184 -233 -450 0
74 -213 -496 0
-116 -448 494 0
-74 212 288 0
442 458 487 0
-135 -306 -370 0
285 301 447 0
-186 -243 297 0
-30 -405 499 0
-117 194 454 0
76 230 353 0
45 -109 -349 0
-233 370 374 0
119 -408 -472 0
5 -25 450 0
10 -37 393 0
304 392 411 0
-181 229 -296 0
-293 345 -443 0
-251 362 -376 0
-5 13 -450 0
-99 -287 289 0
317 398 422 0
371 -380 476 0
-5 -87 439 0
-134 311 334 0
24 -29 325 0
123 330 -396 0
-133 -145 435 0
51 -60 -69 0
-204 324 499 0
-307 -455 -458 0
215 -287 -463 0
-139 -463 497 0
-29 446 -492 0
-7 -240 -280 0
206 -224 -418 0
-159 -257 -448 0
217 -270 369 0
-6 91 -203 0
-195 -244 -418 0
26 144 480 0
3 228 441 0
163 -166 315 0
-323 -362 -395 0
55 -68 286 0
-186 -474 -492 0
38 -107 -409 0
-174 -258 -306 0
231 -431 474 0
103 -120 366 0
49 -96 -245 0
-25 91 131 0
186 225 374 0
-26 -117 330 0
76 -120 -421 0
-351 -455 -465 0
100 146 257 0
163 274 -425 0
197 239 243 0
-208 403 453 0
43 130 -164 0
-11 -93 -429 0
91 -268 -468 0
30 282 -491 0
-74 -97 -100 0
-29 -220 462 0
399 -405 453 0
51 388 -423 0
138 317 -478 0
-318 387 427 0
88 335 492 0
388 402 -435 0
-49 -97 -468 0
-192 371 420 0
-331 400 403 0
43 -67 -487 0
25 -307 358 0
-51 -167 -207 0
-77 -214 336 0
124 -239 384 0
-180 -300 -483 0
-317 -321 387 0
75 -326 482 0
22 -117 -155 0
124 -216 362 0
56 -79 -124 0
-151 -212 355 0
-229 -251 -426 0
-274 327 -403 0
57 225 -384 0
-144 258 -338 0
-18 142 -320 0
273 314 -459 0
167 -280 365 0
111 122 -190 0
-269 467 -472 0
-100 285 -388 0
155 -451 487 0
34 -49 476 0
-51 -155 -319 0
293 -385 -409 0
-139 259 401 0
72 97 -360 0
191 382 425 0
-179 213 -231 0
139 429 474 0
290 431 -500 0
231 -300 310 0
31 -274 -383 0
60 -96 461 0
-23 -59 -134 0
-222 -299 420 0
208 -242 269 0
-8 -250 -354 0
-16 26 319 0
-22 387 -446 0
-108 154 -430 0
122 -191 -314 0
-22 -365 -474 0
-96 229 499 0
39 -203 451 0
-91 337 -488 0
14 117 351 0
-194 342 -414 0
-4 109 182 0
-167 194 423 0
-27 -360 366 0
-406 -415 443 0
-278 -345 451 0
-140 231 306 0
-79 -182 -323 0
-241 -419 484 0
-396 466 486 0
102 -117 -137 0
3 -85 483 0
-31 135 -185 0
-188 -349 353 0
-198 -447 -451 0
53 -232 -408 0
-156 -215 494 0
11 -96 -316 0
376 450 -457 0
178 227 -242 0
-90 115 399 0
154 -303 454 0
-71 -102 -226 0
88 106 130 0
-233 -261 -387 0
-2 37 -404 0
69 -72 439 0
191 -294 398 0
132 355 425 0
-126 -189 472 0
34 57 61 0
216 227 366 0
340 -462 -489 0
-84 -116 -358 0
-11 189 208 0
-47 147 280 0
245 -366 469 0
65 167 -451 0
104 269 -313 0
250 428 -445 0
-28 43 269 0
-40 -201 -202 0
-42 116 -409 0
-175 462 -499 0
-231 -451 -464 0
158 223 -342 0
43 144 -417 0
-186 -235 451 0
-311 318 475 0
-30 -201 -344 0
-134 -322 -422 0
234 -273 -323 0
-201 -430 -431 0
124 -133 154 0
-133 -379 -467 0
409 450 -489 0
79 85 -278 0
42 -265 499 0
-211 261 -419 0
169 -300 360 0
-66 -169 -438 0
-52 -304 -305 0
-102 146 -256 0
-223 -315 -386 0
-3 18 148 0
180 294 434 0
-28 -203 329 0
81 -94 -304 0
165 -177 -448 0
83 -368 439 0
-151 469 499 0
-156 -481 487 0
-146 -196 310 0
-191 -192 -448 0
-19 -66 290 0
226 233 276 0
72 150 455 0
34 250 -431 0
24 288 -399 0
64 -144 -399 0
50 384 499 0
113 343 -453 0
38 295 397 0
53 -360 -453 0
73 -159 -398 0
70 126 -152 0
13 -264 388 0
-256 280 298 0
51 -125 -194 0
46 -274 349 0
325 375 -427 0
-38 219 429 0
17 -70 425 0
54 -87 -437 0
34 423 -447 0
-8 -329 391 0
-252 332 -342 0
141 -385 -447 0
-303 -385 -452 0
10 190 -326 0
97 -251 318 0
-125 344 358 0
12 408 -456 0
131 292 299 0
22 -44 -296 0
-56 110 295 0
-227 -405 473 0
-170 332 -369 0
-3 368 -400 0
4 307 313 0
-71 -75 -215 0
22 31 398 0
-58 250 -342 0
29 53 -375 0
27 -251 -280 0
375 377 394 0
-21 -26 360 0
-69 146 335 0
78 -229 -404 0
52 309 -406 0
33 -245 374 0
23 -418 -488 0
-96 156 237 0
-16 35 491 0
-6 264 451 0
-177 -341 -404 0
-135 376 -445 0
-72 -223 332 0
-96 372 -379 0
-244 -463 465 0
21 -250 390 0
-168 413 485 0
-60 75 286 0
42 -182 471 0
-48 306 -324 0
-50 -363 380 0
334 -380 496 0
281 319 -439 0
-66 -451 468 0
-68 115 272 0
-29 44 -197 0
82 -131 -193 0
220 -345 -461 0
18 68 243 0
-41 187 498 0
-83 -164 169 0
-200 375 500 0
116 299 475 0
368 -401 -442 0
70 303 -373 0
-104 225 474 0
-269 308 490 0
-42 -123 -378 0
5 -137 492 0
-163 225 -467 0
-24 323 480 0
-391 -416 464 0
71 -219 228 0
-83 -106 355 0
-74 150 -312 0
53 -133 491 0
183 244 268 0
35 170 -301 0
-79 123 450 0
-338 -353 391 0
134 -217 -264 0
-221 271 415 0
301 342 433 0
31 -198 -230 0
-90 123 -207 0
-193 -261 339 0
35 -422 434 0
276 -359 -372 0
-158 -319 -419 0
-131 -241 -404 0
260 373 -392 0
75 -149 -164 0
-115 201 -223 0
227 312 -394 0
189 -219 411 0
-96 -128 -347 0
-4 -373 -411 0
-39 217 222 0
26 295 -361 0
25 -361 471 0
196 -205 378 0
-12 -269 -343 0
91 -146 -491 0
283 302 303 0
87 227 307 0
220 435 454 0
167 -196 219 0
47 116 152 0
-74 -112 -193 0
-195 -366 -466 0
155 -398 -410 0
123 -154 452 0
328 386 500 0
-56 -167 -258 0
210 268 -465 0
105 -191 -357 0
106 277 309 0
-379 -421 462 0
173 221 278 0
173 211 -300 0
84 203 204 0
76 -151 -412 0
-4 -72 249 0
2 430 484 0
-29 -236 -486 0
-251 419 -477 0
-83 139 451 0
5 166 -236 0
-144 158 343 0
-89 -325 -354 0
-98 126 -446 0
-48 -98 214 0
-198 356 -432 0
350 357 -406 0
-130 -311 -492 0
-79 -338 -479 0
33 224 454 0
-271 -289 327 0
132 201 445 0
-170 348 -490 0
227 293 -498 0
-187 233 -417 0
45 -380 469 0
164 226 -482 0
-63 123 -459 0
-227 -248 393 0
24 290 489 0
15 449 -498 0
318 347 -369 0
-87 420 488 0
334 -482 493 0
30 212 -361 0
-39 79 -492 0
186 223 -411 0
-68 296 300 0
95 -119 123 0
-71 -81 105 0
3 155 452 0
-452 469 489 0
-205 312 375 0
-103 -199 313 0
-297 364 -379 0
-153 374 -401 0
-43 -196 423 0
15 -54 -90 0
69 -193 490 0
85 -260 -369 0
232 -326 -406 0
147 206 -316 0
-123 -241 -387 0
421 -424 -474 0
-11 -285 -457 0
-283 -450 -475 0
128 -239 246 0
88 106 243 0
35 214 396 0
-66 92 429 0
145 -409 430 0
65 122 411 0
-57 -234 -471 0
225 -313 475 0
-35 258 333 0
168 241 319 0
172 -207 -471 0
-32 -166 230 0
183 395 422 0
33 91 239 0
40 -134 -405 0
-64 433 446 0
-26 -219 -230 0
-169 187 396 0
293 354 480 0
39 -76 -427 0
-68 97 390 0
85 -377 423 0
-53 233 474 0
-90 290 490 0
-18 289 291 0
105 -212 -292 0
92 425 497 0
254 -398 -450 0
-39 374 431 0
299 -324 386 0
-64 -112 -226 0
248 337 -388 0
56 -313 -359 0
-108 -222 -313 0
67 -347 -434 0
-247 -347 -378 0
-56 439 464 0
251 -352 -497 0
112 -238 345 0
242 392 499 0
-127 317 -428 0
8 -49 390 0
-57 365 417 0
-59 332 445 0
-163 -179 -383 0
-208 -231 -369 0
328 -454 -499 0
54 248 -301 0
90 220 -327 0
-53 322 444 0
93 312 342 0
-209 470 -476 0
283 342 -489 0
-169 202 481 0
178 326 -463 0
-107 -302 -421 0
-237 -320 -433 0
202 247 352 0
240 331 -402 0
25 52 -79 0
12 -226 -446 0
116 -257 464 0
233 -281 -331 0
-161 219 -403 0
-41 156 172 0
26 -138 -313 0
-79 -426 -451 0
-1 -82 374 0
390 402 -425 0
-71 -114 151 0
-8 266 -442 0
-211 -290 488 0
18 75 312 0
-208 273 299 0
-166 235 -342 0
70 -204 331 0
34 46 -100 0
100 224 424 0
162 -206 -292 0
-22 133 -400 0
139 203 449 0
-283 -358 389 0
17 170 -489 0
-98 342 -480 0
130 362 -468 0
-348 447 -475 0
114 157 -306 0
7 26 67 0
-76 -287 -481 0
-17 -364 479 0
119 -294 -376 0
-246 -354 423 0
13 32 406 0
144 -265 -500 0
187 -240 -344 0
-2 -97 122 0
208 -209 -482 0
113 -115 363 0
120 -121 -391 0
221 278 -487 0
-160 -167 404 0
301 -411 -497 0
214 365 -460 0
144 155 457 0
-192 -207 -311 0
-14 247 432 0
139 183 348 0
90 185 -391 0
-2 100 -270 0
-166 -181 -231 0
-23 181 -497 0
-87 -89 -93 0
144 -174 -281 0
220 -296 -297 0
222 -384 417 0
-212 -229 -388 0
-5 297 -476 0
90 -93 160 0
-319 -386 443 0
193 -398 465 0
-33 412 -462 0
158 -322 -395 0
-244 -292 -356 0
-201 202 462 0
-200 -209 -406 0
-190 441 -493 0
-35 195 -444 0
247 -336 -423 0
-110 293 346 0
-237 328 -330 0
69 142 -458 0
-39 68 401 0
-45 -226 318 0
-61 -108 445 0
-334 -338 342 0
-6 -328 478 0
115 312 -410 0
8 95 -176 0
-215 390 -426 0
130 338 347 0
-128 -272 -438 0
-11 204 359 0
-106 -144 -326 0
114 304 -332 0
26 66 -420 0
134 -335 -434 0
-187 311 -410 0
-38 -116 -127 0
60 327 331 0
-193 -266 -449 0
6 -310 334 0
-104 262 362 0
-126 146 454 0
-37 47 -453 0
-205 402 442 0
90 111 -486 0
105 -312 -443 0
234 237 239 0
156 -252 437 0
45 -49 -439 0
-66 -142 338 0
-149 -190 -479 0
-135 301 316 0
194 -338 -500 0
-205 -290 -400 0
-1 129 -476 0
95 -297 341 0
82 -91 -192 0
-170 225 -299 0
3 294 438 0
2 -110 173 0
200 -230 -351 0
-26 -101 -367 0
-118 352 462 0
94 319 359 0
17 -38 204 0
-63 -137 -389 0
25 85 194 0
64 -234 -296 0
66 -92 193 0
61 -262 -355 0
-22 90 330 0
75 174 188 0
3 141 240 0
-151 -173 -328 0
48 180 407 0
-166 199 436 0
244 406 -442 0
-192 234 430 0
19 -37 229 0
-117 402 -429 0
88 -206 -285 0
401 -412 440 0
52 -191 -278 0
-172 398 -451 0
376 462 -491 0
46 254 -285 0
4 79 315 0
-88 128 -170 0
105 -214 -227 0
-42 55 -78 0
58 422 -483 0
-314 -324 -391 0
-116 214 264 0
119 -256 339 0
80 128 347 0
129 -291 342 0
-78 -420 -485 0
-106 132 -438 0
-7 120 -268 0
187 189 219 0
92 224 453 0
-1 11 -382 0
-14 -63 -455 0
-200 286 392 0
231 -272 -369 0
-12 296 404 0
64 -379 -454 0
388 434 -460 0
-25 193 448 0
-243 403 -433 0
-41 43 -482 0
186 200 -495 0
45 -111 126 0
-67 -130 -414 0
-229 -277 -446 0
208 -287 377 0
54 -149 195 0
-288 -470 488 0
42 -138 221 0
-4 -199 448 0
19 -123 221 0
-132 180 361 0
28 -422 483 0
-348 375 492 0
-25 -287 -383 0
-62 79 122 0
213 -299 425 0
-10 -274 -397 0
-43 81 113 0
-137 -208 381 0
15 257 274 0
122 289 -424 0
-5 91 152 0
188 -396 476 0
-149 -257 381 0
159 477 487 0
80 -163 349 0
149 -162 454 0
73 -461 463 0
-83 -366 489 0
-71 86 340 0
37 -221 338 0
-219 375 -377 0
-71 -221 469 0
82 259 -328 0
148 -299 461 0
7 187 399 0
146 304 490 0
-12 112 356 0
63 277 -392 0
-62 -77 334 0
167 221 -291 0
50 -241 -246 0
-253 -353 -495 0
225 455 483 0
-217 283 -312 0
-60 -463 -466 0
-99 143 446 0
231 -240 439 0
91 306 330 0
-224 310 -350 0
258 -365 392 0
-71 269 295 0
-26 -274 490 0
-195 -342 -364 0
57 446 477 0
-6 62 500 0
-260 403 472 0
227 317 -435 0
179 -246 387 0
199 -244 -287 0
-31 288 -381 0
208 483 -488 0
-110 205 -399 0
70 216 -355 0
187 416 481 0
-317 -336 -377 0
-147 150 -409 0
48 -312 485 0
177 -233 455 0
-49 -397 421 0
54 231 -431 0
-51 -252 253 0
186 -397 471 0
374 407 413 0
129 170 -329 0
192 345 466 0
239 -250 266 0
144 161 167 0
3 282 457 0
-62 -159 -183 0
126 -415 -475 0
181 327 408 0
-140 -374 463 0
-82 -161 183 0
-76 93 338 0
-67 279 432 0
310 -398 -436 0
234 -236 274 0
-242 303 435 0
-138 -339 -478 0
-184 -279 -297 0
147 191 -465 0
52 386 496 0
-124 -130 -358 0
164 -175 -267 0
-150 238 -383 0
-31 95 -272 0
-115 -366 -408 0
54 -111 460 0
-246 -340 -485 0
-177 212 -456 0
-95 367 391 0
-60 303 -397 0
-141 -187 -335 0
129 -462 482 0
-93 -96 -153 0
2 21 40 0
-35 -130 -433 0
280 371 -386 0
267 459 471 0
151 -346 404 0
-24 67 80 0
106 -248 271 0
56 -258 336 0
76 -241 -427 0
312 -421 -434 0
-318 -319 -391 0
130 226 302 0
98 -108 -140 0
281 388 476 0
-188 241 -380 0
254 -354 429 0
88 116 -392 0
24 66 247 0
68 -127 -262 0
12 375 -462 0
106 -255 264 0
54 146 -203 0
124 -227 329 0
-95 -203 221 0
-178 -231 286 0
-172 -416 -445 0
146 -205 216 0
325 355 473 0
111 417 429 0
-15 157 -401 0
33 210 -469 0
-80 392 457 0
264 -326 357 0
-178 227 313 0
-389 -485 497 0
-186 -327 -354 0
15 -71 -333 0
-23 392 -486 0
-27 211 -271 0
75 409 -463 0
-264 479 494 0
-38 41 -447 0
13 -26 -404 0
71 117 403 0
17 52 425 0
94 179 -467 0
77 84 492 0
210 247 402 0
-242 281 -445 0
-10 326 -477 0
-198 -208 -389 0
-302 337 488 0
276 300 434 0
-154 -378 440 0
155 -260 351 0
-46 -179 -454 0
-215 363 387 0
79 -381 405 0
-79 -234 450 0
160 283 -496 0
178 -299 328 0
57 167 -200 0
143 362 -387 0
208 -260 -393 0
89 182 264 0
-47 -58 -259 0
-220 272 274 0
60 219 472 0
-23 183 344 0
-137 -367 -499 0
-309 -340 354 0
274 462 494 0
-197 -229 276 0
13 -242 423 0
-174 271 431 0
78 279 383 0
106 193 295 0
225 312 461 0
69 202 489 0
-14 -200 -408 0
136 312 476 0
207 -405 -450 0
-99 -116 219 0
-145 339 -385 0
-63 395 500 0
-204 410 496 0
148 156 272 0
106 -167 421 0
111 -233 388 0
-96 445 -488 0
123 -254 301 0
122 328 -398 0
-21 -52 143 0
-266 278 -392 0
190 208 -480 0
-24 -183 -260 0
-28 -180 -236 0
243 475 -490 0
59 -463 -469 0
-75 -372 482 0
236 269 -283 0
115 -406 409 0
-14 119 338 0
-114 184 -412 0
188 269 -334 0
-30 81 -481 0
154 -280 -419 0
175 358 -398 0
-82 203 -213 0
124 323 378 0
-105 123 133 0
-105 -270 -312 0
44 -197 -413 0
-216 412 -460 0
217 -264 -380 0
-225 227 -301 0
106 -198 -364 0
-49 188 -370 0
290 301 -356 0
-33 136 368 0
30 104 -392 0
104 -153 166 0
-6 -145 420 0
-42 -65 377 0
237 300 -332 0
6 118 -465 0
160 -178 382 0
135 162 335 0
-264 318 373 0
135 -277 -352 0
22 124 -494 0
-135 172 -194 0
31 227 486 0
47 -95 371 0
-42 -99 -380 0
70 256 423 0
37 405 447 0
-44 104 456 0
32 63 -251 0
-1 -83 -188 0
81 -148 155 0
-109 228 379 0
-58 261 -356 0
1 -75 161 0
250 -281 -375 0
-46 144 -203 0
197 212 268 0
4 -310 355 0
-16 -147 -317 0
-166 -373 -452 0
-81 207 -321 0
-169 -230 477 0
101 -250 -319 0
-193 -233 -369 0
-44 -119 123 0
255 -349 -390 0
-108 215 -373 0
-59 75 -365 0
-89 391 -398 0
200 320 416 0
-35 -304 -327 0
-319 376 378 0
48 -358 -405 0
134 323 -496 0
-103 120 -473 0
136 173 346 0
-265 -331 447 0
112 440 477 0
64 255 -457 0
-168 271 305 0
-56 -80 240 0
-11 -302 -418 0
172 -271 -289 0
-80 369 -457 0
-139 173 -422 0
-235 328 489 0
-253 -308 -498 0
-88 -305 -332 0
50 59 -400 0
209 -213 333 0
-243 -315 411 0
134 185 254 0
-191 418 -493 0
44 328 -413 0
-47 -67 -80 0
-5 89 -181 0
54 -98 418 0
112 -308 349 0
-8 -72 433 0
93 -155 204 0
24 360 -410 0
-135 303 414 0
25 -271 -414 0
-7 306 -497 0
256 -454 496 0
77 -93 -133 0
309 365 478 0
-169 -242 456 0
-61 279 404 0
35 273 460 0
176 -257 384 0
353 -365 -386 0
-284 -312 457 0
-20 -268 376 0
-4 189 423 0
110 125 -286 0
-309 315 -493 0
-38 68 407 0
262 393 -423 0
-379 456 -462 0
-181 183 -301 0
329 -444 445 0
46 -412 -444 0
145 310 447 0
-129 -142 400 0
-198 -339 -494 0
75 -84 -469 0
-56 271 274 0
-156 -188 456 0
106 -163 298 0
71 231 -465 0
-50 -299 497 0
70 -279 -495 0
-1 -137 -171 0
-49 -101 258 0
139 -310 379 0
-165 185 365 0
-153 219 435 0
438 472 494 0
114 149 387 0
264 303 306 0
82 -363 -457 0
-123 290 -357 0
190 315 -367 0
249 -362 -455 0
-159 191 -500 0
-136 174 -437 0
-49 193 -206 0
124 -439 -481 0
93 -217 -454 0
-72 -330 411 0
-1 18 -205 0
-166 -170 -175 0
-31 -180 247 0
-70 -187 -198 0
22 283 -454 0
-116 -234 -351 0
230 264 -394 0
98 -169 -171 0
229 -332 392 0
-60 134 264 0
81 467 487 0
-180 317 -376 0
-118 211 -319 0
-23 -162 257 0
-63 -143 180 0
-84 -320 -328 0
124 -319 474 0
-332 451 -473 0
64 392 -397 0
117 -198 231 0
122 -320 428 0
121 -193 490 0
88 -416 443 0
234 -337 -403 0
63 -342 481 0
-160 258 -396 0
85 210 244 0
88 -283 -303 0
-210 -215 -470 0
80 177 -316 0
-67 -148 -203 0
-19 117 333 0
37 72 -352 0
-291 -435 -484 0
-339 -368 -373 0
-221 -383 422 0
86 136 -479 0
173 180 -339 0
-274 -339 370 0
265 -364 -456 0
-177 189 364 0
-386 441 -474 0
-196 -219 -395 0
171 -237 -439 0
15 228 -364 0
-7 -69 -474 0
-96 477 478 0
224 -356 398 0
93 297 -300 0
10 -20 -321 0
-342 -408 -463 0
16 -139 -205 0
-223 -333 -492 0
-277 -326 -338 0
-104 106 -410 0
-131 -262 423 0
6 39 -153 0
114 -125 144 0
355 455 -463 0
127 163 312 0
124 310 461 0
-82 -107 -463 0
60 -168 492 0
17 -49 -364 0
-91 130 287 0
266 -332 333 0
42 74 -299 0
-142 -288 426 0
31 55 450 0
107 -151 187 0
253 278 -300 0
-24 -255 257 0
188 364 419 0
157 -188 -325 0
307 464 -489 0
-193 -452 491 0
53 164 414 0
-112 -213 -428 0
-74 132 -241 0
108 -175 -411 0
-145 -204 353 0
-20 -26 282 0
194 -409 452 0
297 -476 -490 0
97 -242 -271 0
-37 60 93 0
-296 458 462 0
153 -182 -196 0
-25 -172 -316 0
336 368 -406 0
-5 416 -477 0
13 47 -322 0
-71 -207 -472 0
-60 176 -238 0
-397 443 472 0
239 -285 332 0
-71 346 -415 0
151 274 -372 0
-66 -182 222 0
-118 160 -387 0
-201 -247 -276 0
-191 -362 422 0
-29 173 271 0
-84 230 343 0
-162 207 295 0
-65 -360 446 0
-178 355 481 0
161 371 -439 0
-77 -398 400 0
258 269 426 0
66 208 -453 0
108 -308 -469 0
233 -426 436 0
-307 -470 489 0
-203 303 -309 0
-118 159 218 0
230 -345 388 0
-111 277 440 0
-15 49 294 0
-85 -315 433 0
63 -101 447 0
-100 367 452 0
13 -258 -318 0
244 357 425 0
209 297 433 0
49 94 408 0
-18 149 156 0
52 235 443 0
-7 46 241 0
48 51 -167 0
-144 280 -412 0
36 -163 -315 0
-286 366 -474 0
-135 229 338 0
341 430 -468 0
-63 -129 -189 0
-328 -335 -468 0
-121 -374 426 0
-82 95 -256 0
-98 -472 -480 0
-130 249 -453 0
77 -443 -497 0
-200 -222 -496 0
15 273 -475 0
137 -412 436 0
203 292 -338 0
209 473 482 0
-93 149 -353 0
80 133 441 0
61 -279 -441 0
87 201 -343 0
-53 303 440 0
-217 -274 285 0
77 -117 146 0
-6 -183 -469 0
176 -189 -399 0
-39 84 -121 0
138 -273 278 0
-136 209 335 0
-268 -415 -441 0
-101 -441 -445 0
-79 123 -465 0
-30 154 357 0
96 -450 482 0
43 162 -392 0
-107 -295 475 0
-72 288 443 0
163 -468 484 0
137 -231 -452 0
169 314 436 0
57 295 381 0
-111 -282 454 0
-66 -116 247 0
-100 -387 -427 0
-79 -449 -485 0
85 153 471 0
-105 -241 -420 0
132 -213 295 0
-48 196 -385 0
-224 312 492 0
-20 -44 -361 0
-154 292 454 0
130 -290 319 0
173 214 375 0
77 -278 281 0
134 250 -281 0
-163 -165 192 0
43 -181 372 0
28 261 -379 0
-75 149 -465 0
3 -194 -200 0
297 -366 409 0
96 241 271 0
-142 -421 -426 0
-103 -399 421 0
232 -261 -315 0
-268 -321 -437 0
63 -353 413 0
59 91 297 0
117 306 404 0
81 104 -258 0
124 196 -289 0
43 -224 -377 0
253 -434 447 0
-23 -236 497 0
462 -477 -492 0
107 -144 492 0
80 409 492 0
77 -449 497 0
-166 174 491 0
171 382 398 0
112 -173 -289 0
-385 388 458 0
73 278 384 0
56 -325 -466 0
-170 171 -395 0
149 150 193 0
105 321 -500 0
-170 -212 316 0
5 -36 -288 0
92 -179 217 0
-263 396 431 0
-36 -53 -472 0
-78 -222 -401 0
349 428 498 0
230 342 -380 0
110 -264 434 0
27 -59 -462 0
150 276 390 0
117 -224 298 0
2 245 -491 0
79 -399 -478 0
-126 -159 -284 0
110 297 -348 0
-65 -215 241 0
41 -272 -283 0
92 -137 -282 0
37 125 357 0
-129 -155 -156 0
-175 359 451 0
-41 131 -330 0
-118 316 -331 0
43 -289 -472 0
-7 -246 281 0
-34 142 492 0
-104 117 363 0
-284 -349 -482 0
74 120 -229 0
-265 272 -293 0
37 392 485 0
-16 -111 475 0
-20 -335 -417 0
118 -126 487 0
10 233 -369 0
69 -324 494 0
300 336 -388 0
109 -125 262 0
-261 449 494 0
130 316 -464 0
-177 -261 -272 0
-19 104 370 0
-66 164 -253 0
-147 -188 282 0
-83 358 -404 0
23 290 -390 0
26 -284 391 0
-4 -152 494 0
75 181 -193 0
132 -217 -435 0
150 288 -315 0
-43 126 -431 0
97 -232 -274 0
244 247 279 0
242 -334 -362 0
211 398 459 0
-17 23 475 0
227 -330 -342 0
70 395 -439 0
30 -295 -298 0
93 -136 236 0
15 135 -209 0
-83 154 -190 0
-3 -70 327 0
73 468 484 0
-233 -318 443 0
80 170 408 0
144 -262 352 0
-257 -284 -399 0
53 170 455 0
-179 280 -432 0
-76 -168 437 0
159 430 -435 0
-2 167 -232 0
-25 -342 -445 0
195 427 491 0
147 270 331 0
-143 176 -315 0
-19 -160 272 0
-79 85 360 0
-32 -222 -332 0
-184 -280 -477 0
-64 104 278 0
-58 63 488 0
260 417 -500 0
-135 388 -436 0
287 360 462 0
-61 227 425 0
40 274 285 0
16 64 -370 0
263 -392 487 0
360 378 404 0
12 209 252 0
-5 -87 256 0
264 378 -462 0
36 212 459 0
-34 -72 107 0
-1 -249 -492 0
74 365 420 0
137 -241 -349 0
128 -236 406 0
273 -302 -323 0
-152 228 453 0
161 326 395 0
-26 343 369 0
-35 475 -478 0
289 -357 -407 0
-28 176 315 0
213 -219 424 0
13 178 335 0
197 -281 375 0
-84 -228 -495 0
73 156 350 0
106 -127 -233 0
-125 263 338 0
-102 201 248 0
-44 127 -377 0
214 217 228 0
-26 -161 -164 0
-112 207 272 0
-46 -395 -404 0
4 -264 495 0
96 -110 -460 0
-198 -208 -439 0
-41 -130 365 0
46 310 400 0
41 173 273 0
28 -91 -304 0
323 338 -362 0
172 212 463 0
38 244 463 0
35 -283 -342 0
-34 224 -401 0
28 354 -417 0
277 -332 -471 0
121 175 -290 0
304 -388 -468 0
-147 310 -405 0
-63 -297 413 0
-58 -146 231 0
97 -229 -404 0
-46 315 474 0
202 309 -368 0
-96 142 -147 0
-213 392 -417 0
218 324 -438 0
75 -87 493 0
-85 -302 -354 0
16 155 386 0
-25 96 280 0
-88 148 -290 0
-20 132 -226 0
198 235 -476 0
27 -81 152 0
140 -176 -223 0
87 209 387 0
143 247 463 0
80 163 253 0
-107 203 -446 0
189 270 -365 0
-21 26 460 0
58 160 -395 0
115 -189 257 0
6 -113 344 0
-194 -391 -451 0
-42 -211 -301 0
-150 152 -204 0
-81 153 242 0
-234 473 476 0
-159 177 422 0
-198 382 389 0
-268 -328 -372 0
154 -186 -352 0
-57 -468 471 0
333 -403 -439 0
4 95 -171 0
-46 -186 212 0
238 324 -498 0
-222 -226 482 0
228 233 428 0
174 317 -488 0
189 -298 -444 0
117 202 -392 0
163 204 321 0
-164 -274 479 0
-153 280 -305 0
216 327 -459 0
-15 -193 293 0
