c description: Random 3-CNF over 500 variables and 2129 clauses
c generator: CNFgen (0.9.6)
c copyright: (C) 2012-2026 Massimo Lauria <massimo.lauria@uniroma1.it>
c url: https://massimolauria.net/cnfgen
c command line: cnfgen randkcnf 3 500 2129
c
p cnf 500 2129
-382 400 492 0
70 180 -431 0
-252 -424 -470 0
-14 -292 -431 0
43 -136 389 0
116 196 290 0
-229 -264 483 0
-4 350 -358 0
9 -293 462 0
22 -320 378 0
-73 174 485 0
45 -359 -494 0
207 424 439 0
-151 -309 -358 0
119 195 -316 0
132 -438 -439 0
-40 -170 338 0
-53 174 289 0
-129 130 -359 0
114 -179 -288 0
-114 -174 422 0
195 -425 -480 0
-91 205 363 0
-91 -410 -431 0
228 -341 -378 0
88 -118 407 0
-414 -445 -486 0
86 258 -366 0
166 -265 -341 0
-49 -241 405 0
-45 -300 -496 0
196 -356 388 0
-16 398 -469 0
-114 158 377 0
166 223 292 0
-331 376 -496 0
-12 87 -240 0
-257 384 455 0
-72 170 347 0
177 -370 380 0
233 -321 -394 0
-30 348 -423 0
-315 455 -499 0
-205 209 -476 0
219 -266 329 0
-59 -158 -318 0
-300 388 395 0
-70 -223 -444 0
140 207 215 0
-184 -378 454 0
73 -101 -128 0
-310 394 -421 0
140 -362 -363 0
124 247 -489 0
-28 385 474 0
-96 -150 464 0
170 229 467 0
-28 -100 167 0
-33 -367 378 0
-64 -283 -463 0
6 -417 -422 0
238 244 416 0
19 -49 441 0
-47 -217 -242 0
-32 332 -338 0
-275 303 406 0
236 -358 -364 0
-103 357 -467 0
59 413 444 0
33 230 -337 0
-53 -88 339 0
162 252 -366 0
-38 142 437 0
-19 25 162 0
269 -385 -473 0
-112 183 499 0
-16 282 -438 0
-178 408 -483 0
117 -438 468 0
-119 171 396 0
107 344 -353 0
-76 -337 -471 0
217 334 -404 0
-245 -418 490 0
-37 106 131 0
208 -313 -434 0
-157 -353 493 0
-15 115 362 0
-79 390 454 0
28 -134 404 0
-48 292 -456 0
-61 66 -235 0
14 15 -492 0
159 347 -362 0
70 -329 367 0
-410 -476 495 0
-142 -384 394 0
141 388 -451 0
-5 145 -231 0
-279 346 452 0
-11 266 351 0
55 172 -286 0
-51 72 376 0
121 -122 -233 0
-75 178 -192 0
-230 247 262 0
37 -152 -185 0
160 -177 -178 0
-177 -294 304 0
185 -249 -372 0
-68 208 467 0
246 248 399 0
-208 -447 -497 0
-3 140 -481 0
96 -221 313 0
-8 27 -327 0
196 232 -332 0
297 -474 496 0
-146 -218 437 0
-46 -79 -350 0
-7 184 451 0
34 -166 -434 0
138 -329 489 0
-95 -195 285 0
-80 349 485 0
94 -329 -401 0
239 294 -364 0
-230 -245 -257 0
47 257 -462 0
49 344 466 0
204 -282 428 0
40 -99 -397 0
-1 176 -351 0
64 -126 488 0
63 -198 235 0
-133 -223 347 0
-23 259 465 0
136 -292 -369 0
-45 -235 468 0
-15 418 -442 0
-233 235 -299 0
28 -410 -475 0
-281 290 -328 0
-310 -338 394 0
-122 437 500 0
-112 -295 -491 0
8 65 249 0
-115 313 -485 0
33 291 311 0
60 67 -282 0
-143 -346 478 0
-105 -359 -482 0
-378 403 417 0
-107 411 -458 0
54 218 -245 0
204 246 282 0
26 -117 -455 0
62 -263 -462 0
225 -377 -394 0
88 119 -406 0
10 62 -439 0
-3 335 397 0
217 -339 -366 0
-353 -375 -376 0
243 298 423 0
-60 -132 280 0
-170 274 428 0
206 -222 400 0
48 -76 182 0
102 -283 -410 0
-94 173 -450 0
73 -204 -281 0
261 -376 493 0
-127 300 -469 0
-92 -231 294 0
163 -365 456 0
124 151 303 0
-33 -147 -281 0
-72 -387 -441 0
375 455 -490 0
-155 -363 -373 0
199 250 -294 0
358 -409 -481 0
-40 128 182 0
177 -347 -375 0
59 62 -428 0
-40 351 455 0
-157 227 362 0
228 -344 -372 0
303 -446 495 0
-329 343 -405 0
-113 -277 -396 0
36 277 -324 0
-4 -65 407 0
-38 -309 -434 0
-81 99 231 0
165 312 -414 0
-63 -214 -290 0
215 -324 418 0
160 -187 -294 0
81 173 -361 0
10 38 -168 0
144 206 -444 0
-63 -345 -365 0
44 -51 370 0
81 -325 -418 0
203 338 -481 0
245 411 -440 0
-64 -418 479 0
296 413 -494 0
-12 -322 466 0
-176 365 496 0
1 16 102 0
41 136 -294 0
56 -156 -201 0
-102 -416 -482 0
-90 286 -459 0
218 -382 443 0
56 -100 -426 0
-186 -427 -438 0
52 -131 470 0
66 81 -228 0
-5 -373 -412 0
-35 -218 435 0
40 199 -469 0
-253 305 310 0
108 -130 490 0
86 219 353 0
-195 283 -315 0
96 -285 488 0
-32 380 -456 0
86 -106 -388 0
140 -299 -474 0
-28 251 473 0
-11 -280 333 0
266 -274 288 0
-62 -113 -434 0
26 69 -164 0
-11 -87 391 0
57 -122 -219 0
178 208 425 0
-23 -56 452 0
-170 -212 -477 0
-74 -420 456 0
-130 392 -465 0
-51 -81 -348 0
-226 -431 -486 0
-13 105 -255 0
79 -223 -369 0
4 166 329 0
38 112 -297 0
10 202 247 0
-29 -489 490 0
-141 346 454 0
-128 147 -416 0
-78 -182 -313 0
-104 -197 476 0
-54 246 -495 0
261 -364 -428 0
-61 62 -188 0
82 -329 380 0
-33 317 468 0
-53 -250 -289 0
-92 198 249 0
263 -277 305 0
91 -336 -348 0
-66 332 402 0
79 81 -305 0
47 406 -497 0
152 -310 389 0
-354 -451 454 0
-126 383 -459 0
-56 221 373 0
-13 -293 -319 0
372 -424 -490 0
37 -469 498 0
-114 -198 -408 0
4 198 456 0
342 -349 -474 0
-232 -407 475 0
82 197 -341 0
-184 -335 497 0
-221 351 361 0
-87 267 347 0
-122 344 377 0
155 -213 -297 0
135 -280 478 0
-183 192 -488 0
-156 165 -483 0
252 -363 -469 0
-113 -321 -365 0
52 -365 443 0
-93 -164 444 0
15 -272 287 0
114 328 448 0
-78 197 -338 0
-100 322 346 0
-127 135 248 0
48 222 381 0
22 52 92 0
201 240 -294 0
113 -147 437 0
-167 288 313 0
-86 184 -415 0
-41 296 -312 0
-214 355 -455 0
-233 481 495 0
113 381 475 0
-182 -369 494 0
123 132 -354 0
84 -102 149 0
-219 273 328 0
189 214 -347 0
-284 342 464 0
95 205 -250 0
-165 -247 -307 0
189 416 -420 0
218 353 404 0
-81 155 340 0
-134 -207 208 0
-56 -341 -389 0
-16 -36 433 0
70 92 317 0
118 -328 -492 0
-97 -217 381 0
-249 -397 -491 0
58 -129 -327 0
-14 -199 407 0
-394 -416 489 0
-166 -303 426 0
-16 -116 259 0
-202 386 441 0
246 -262 466 0
-29 -377 -454 0
-185 -323 -473 0
-84 -468 500 0
-193 -208 -264 0
-10 198 271 0
-63 -350 384 0
177 -422 444 0
-241 -244 410 0
83 -220 238 0
-89 153 334 0
28 -379 386 0
161 -187 -218 0
179 -321 375 0
169 -207 -355 0
34 -242 468 0
98 -194 235 0
-6 8 424 0
290 -459 500 0
-107 -179 -308 0
-70 -86 444 0
207 -314 480 0
78 -94 375 0
-12 46 354 0
2 -102 203 0
63 -158 471 0
-12 159 428 0
-191 -234 361 0
-222 262 -427 0
-4 385 -465 0
-104 -311 -316 0
301 458 479 0
-133 -209 224 0
-85 -335 -351 0
-184 322 429 0
-190 196 249 0
-163 -167 -169 0
-51 -152 -445 0
53 111 323 0
-136 -244 317 0
77 151 -470 0
-144 154 -367 0
164 303 309 0
117 347 450 0
86 96 -490 0
-293 431 -451 0
75 -115 -315 0
213 -238 471 0
-221 -317 -448 0
-98 -116 -219 0
-20 -196 210 0
329 340 354 0
-36 59 500 0
236 -432 -471 0
-208 288 -384 0
-8 -144 -391 0
18 129 -326 0
115 -231 -260 0
-135 -358 -360 0
147 -273 366 0
21 -128 -446 0
-55 -401 422 0
383 -431 -472 0
156 346 447 0
-200 -475 489 0
-77 254 -391 0
-101 -241 433 0
121 125 -133 0
-243 393 490 0
53 -329 335 0
207 343 -367 0
131 -238 -344 0
120 134 282 0
29 317 374 0
-208 -361 400 0
-144 162 296 0
198 289 -458 0
305 462 -489 0
-142 -183 -446 0
-178 -298 481 0
75 373 494 0
188 216 -479 0
206 365 -401 0
141 278 -361 0
67 440 468 0
-202 -222 -224 0
-108 232 436 0
-18 -398 411 0
97 368 435 0
-43 132 -327 0
268 362 -407 0
-13 399 412 0
10 -47 296 0
111 292 426 0
-171 417 445 0
-146 -154 -416 0
-88 204 490 0
312 327 -334 0
62 -305 474 0
432 453 496 0
21 -83 467 0
136 217 460 0
-94 486 500 0
-15 269 476 0
222 -247 -296 0
185 -211 -400 0
-59 -104 148 0
125 -300 351 0
8 337 389 0
-240 -309 -330 0
-349 -419 493 0
-24 25 252 0
54 -431 498 0
19 196 -298 0
160 222 -238 0
44 -263 -406 0
36 96 -455 0
-202 -299 462 0
81 209 -218 0
201 -205 -465 0
119 375 492 0
13 -171 -472 0
341 -389 -440 0
-83 299 307 0
-135 209 493 0
-3 284 -437 0
-92 -207 241 0
-92 -324 386 0
-85 411 479 0
-69 300 410 0
84 -250 272 0
-69 164 -201 0
2 126 -448 0
45 -131 -132 0
-124 -244 447 0
78 -397 406 0
256 286 -314 0
104 -200 336 0
15 -82 -377 0
28 32 -283 0
157 -182 -466 0
96 -444 491 0
-41 141 200 0
123 239 344 0
-7 -187 -335 0
-103 255 -457 0
-3 305 -371 0
-155 261 -303 0
-89 164 194 0
202 234 -344 0
-60 -227 428 0
-12 -130 165 0
5 303 476 0
83 244 -493 0
-220 -222 -317 0
320 -368 472 0
-251 330 423 0
-19 -78 -378 0
40 -299 469 0
220 413 -453 0
64 -237 265 0
-286 -290 -487 0
38 346 -433 0
28 471 -474 0
277 -312 391 0
63 -251 -484 0
-1 115 -234 0
141 200 -409 0
-62 148 -259 0
54 -250 424 0
55 -179 -252 0
64 -153 -176 0
-50 -141 238 0
61 -95 -391 0
29 89 -254 0
-56 284 -418 0
-322 385 -466 0
-150 -342 -461 0
2 -6 -215 0
-213 -252 -397 0
-103 306 -336 0
383 -421 -448 0
-347 -413 424 0
-2 -102 -367 0
7 110 487 0
367 -428 458 0
-214 270 391 0
-10 -121 -376 0
-34 114 -142 0
-367 408 436 0
129 -151 -328 0
-291 407 445 0
-53 357 -398 0
180 -302 469 0
70 -203 -248 0
66 224 -347 0
-183 -250 269 0
-83 -151 446 0
240 248 -496 0
-82 -164 334 0
-60 -380 393 0
117 180 -314 0
-169 270 428 0
321 325 -384 0
-100 158 -330 0
103 -113 -465 0
-20 -106 -164 0
98 -144 379 0
-3 199 339 0
13 -138 259 0
60 137 -321 0
-289 374 445 0
56 -189 368 0
215 325 -479 0
25 173 252 0
211 259 292 0
212 378 445 0
221 385 -484 0
-41 192 -489 0
62 73 95 0
-61 -354 412 0
-99 305 323 0
212 -249 435 0
131 -148 405 0
26 -38 423 0
226 341 -342 0
-177 -307 389 0
28 -329 -441 0
77 -365 -488 0
204 -418 488 0
-97 306 -394 0
47 80 339 0
-49 -280 -487 0
86 -109 366 0
-80 -138 -298 0
-237 269 497 0
175 182 484 0
-212 -381 494 0
-29 40 370 0
-100 317 -440 0
70 -137 -412 0
49 -100 488 0
13 361 494 0
-294 435 -493 0
53 -246 391 0
71 101 -367 0
-306 358 -387 0
248 -423 438 0
70 -155 246 0
-80 190 234 0
1 41 387 0
-20 -243 -336 0
-8 27 -184 0
-123 -231 -285 0
81 -229 -485 0
69 -245 493 0
-56 -103 258 0
-116 -227 411 0
393 -463 498 0
-177 245 451 0
38 116 -312 0
3 332 461 0
-177 372 378 0
-28 -75 235 0
98 -231 -453 0
-117 160 209 0
-39 183 -205 0
166 -325 -378 0
-49 -73 389 0
-121 316 -386 0
-26 -428 446 0
-2 -45 -78 0
383 400 -432 0
125 188 -455 0
-67 201 -213 0
180 277 297 0
-5 -46 -207 0
-9 -271 -394 0
-106 -387 413 0
-29 -264 317 0
190 -302 -395 0
-235 -237 -342 0
120 -158 403 0
222 -276 330 0
-164 -236 418 0
-278 -315 -352 0
-308 410 -422 0
7 284 -305 0
180 201 298 0
69 -235 -314 0
50 135 197 0
-127 -411 -417 0
36 192 283 0
371 400 431 0
38 115 270 0
-7 -429 473 0
56 96 233 0
-9 -185 -498 0
286 -464 492 0
149 -233 -414 0
-50 -234 -411 0
59 -150 406 0
60 -320 330 0
30 -89 -133 0
181 -239 -394 0
15 -183 413 0
117 -295 448 0
-129 154 -402 0
-237 309 -455 0
-131 -353 389 0
-55 -370 -377 0
82 109 -336 0
-226 314 -351 0
-93 124 -246 0
280 -322 -460 0
57 -83 -329 0
-194 210 -408 0
33 90 -449 0
11 -74 255 0
272 -295 -364 0
-69 -106 267 0
132 222 -422 0
-34 192 -432 0
-86 -134 304 0
-90 285 357 0
69 -125 500 0
-25 -233 383 0
48 249 -453 0
-171 237 -317 0
197 -318 474 0
-80 148 -297 0
-431 432 438 0
24 -265 -495 0
-122 435 489 0
42 107 372 0
45 -108 199 0
43 226 -391 0
-126 -349 400 0
175 238 -357 0
-90 -116 243 0
-147 -295 -296 0
294 320 496 0
50 -132 443 0
-84 -134 -346 0
108 307 -458 0
-163 368 482 0
-205 -316 -432 0
189 191 227 0
-45 -403 407 0
55 71 -93 0
97 107 190 0
-14 -83 -410 0
-306 -367 425 0
-167 -382 393 0
-189 -232 422 0
83 202 -212 0
-65 82 130 0
13 97 109 0
94 -424 495 0
-69 116 485 0
-71 -205 317 0
87 -184 352 0
-96 -414 -490 0
-3 302 309 0
-393 -398 429 0
1 181 232 0
165 254 -402 0
-180 -196 403 0
-79 94 277 0
-255 313 336 0
-125 189 275 0
-117 -184 367 0
-220 -271 277 0
28 261 -366 0
157 420 433 0
68 -82 394 0
-187 -331 425 0
24 -264 466 0
-337 -364 -465 0
-355 -393 -474 0
-331 356 -418 0
50 333 -405 0
53 69 -255 0
-8 -109 143 0
-53 -139 161 0
59 214 -407 0
102 -104 -487 0
-162 351 -491 0
-201 246 482 0
133 -161 465 0
-16 222 -233 0
-182 -267 357 0
183 187 -256 0
57 78 -491 0
-117 410 448 0
-238 -310 435 0
-94 129 177 0
37 -90 -278 0
-39 125 -312 0
47 352 -454 0
75 105 -292 0
391 -456 457 0
-237 -309 345 0
119 -257 278 0
302 324 -438 0
-107 251 -433 0
-8 122 -412 0
228 318 331 0
23 471 487 0
10 60 420 0
395 -455 -477 0
-250 365 401 0
171 296 -389 0
-162 -170 -374 0
346 395 493 0
220 -221 464 0
-50 -207 327 0
-50 152 -174 0
-262 -393 445 0
-215 -288 306 0
79 288 435 0
-127 -132 137 0
-126 -210 -415 0
191 270 305 0
-62 -130 -278 0
123 -304 341 0
-85 299 -476 0
-344 374 -394 0
-280 416 479 0
23 176 309 0
-39 -171 423 0
-285 318 -474 0
16 36 242 0
-137 -168 -397 0
-128 235 448 0
-106 -437 482 0
73 426 469 0
-14 146 301 0
-107 132 -302 0
18 72 -265 0
14 -41 -365 0
-5 348 -440 0
-131 322 387 0
384 -402 -406 0
115 205 -210 0
3 426 497 0
78 275 -370 0
155 247 -409 0
-256 441 -449 0
-24 182 -193 0
94 403 440 0
-43 -96 -120 0
74 140 233 0
-215 254 -314 0
-94 146 187 0
-303 433 -446 0
94 -135 -257 0
5 -21 223 0
-63 169 337 0
56 -413 -449 0
-56 60 -341 0
193 335 -446 0
-222 -290 -422 0
-97 166 -215 0
9 129 -430 0
-92 96 156 0
184 -414 -473 0
341 391 459 0
253 327 409 0
244 472 491 0
-233 -292 480 0
78 293 -427 0
157 192 -403 0
62 71 414 0
-138 218 -380 0
58 -278 -380 0
29 281 343 0
-53 271 -481 0
318 390 -407 0
51 168 -381 0
97 173 -467 0
30 40 421 0
-106 241 339 0
59 229 -489 0
130 198 470 0
-250 -405 -438 0
-108 -467 -495 0
-6 -431 -442 0
221 -293 388 0
206 -473 499 0
-291 304 464 0
348 357 -467 0
-67 -134 448 0
-95 -264 470 0
-10 -129 217 0
96 423 -455 0
304 427 436 0
-158 -207 335 0
-312 -433 -470 0
-33 34 -367 0
-261 413 449 0
137 298 320 0
-116 -341 429 0
-330 377 -488 0
4 -66 123 0
-219 -358 388 0
9 -359 -434 0
-93 -199 -431 0
141 143 -422 0
92 391 497 0
2 83 322 0
161 -266 -331 0
-289 426 -464 0
181 -211 -219 0
140 -163 -379 0
187 -218 -443 0
25 234 -454 0
67 -148 268 0
138 -484 486 0
56 -131 -472 0
-70 -265 -300 0
-69 276 278 0
251 298 304 0
185 -295 435 0
151 -327 -335 0
-155 -260 -410 0
-5 21 298 0
-252 322 -449 0
61 -193 -207 0
-126 269 -365 0
-61 -164 448 0
303 376 -489 0
-74 416 -492 0
-166 -354 451 0
-35 -136 325 0
-222 -385 452 0
243 -292 321 0
-105 235 -292 0
287 370 375 0
77 -344 -378 0
-190 -283 357 0
68 -139 -152 0
62 -100 462 0
-176 -320 -408 0
-23 90 211 0
138 -260 -368 0
-31 -129 474 0
248 -275 321 0
-179 -199 -416 0
-53 58 -451 0
-36 -52 249 0
22 220 -405 0
80 327 -376 0
-221 257 -500 0
-39 54 110 0
-46 -179 439 0
-207 -394 -419 0
78 -184 378 0
-93 -176 409 0
27 -130 391 0
13 -277 -394 0
-92 -216 -389 0
-135 343 -480 0
56 63 404 0
168 -427 444 0
379 -420 488 0
-21 234 429 0
41 83 279 0
152 -381 426 0
-65 -115 153 0
-75 -94 -410 0
203 -321 418 0
25 -202 -210 0
-60 278 359 0
91 -318 -441 0
-175 283 459 0
-42 311 -402 0
-89 155 389 0
-241 428 -498 0
-53 228 390 0
172 -252 -420 0
-298 -400 447 0
-10 199 282 0
162 -225 381 0
53 359 -378 0
-145 -230 379 0
-157 -251 414 0
146 197 -436 0
66 206 240 0
-158 -271 365 0
-143 168 -473 0
227 232 -289 0
-162 -172 451 0
-109 -242 -454 0
-67 219 389 0
360 -383 397 0
-128 165 353 0
-216 -256 -353 0
128 -139 400 0
-148 -389 450 0
-21 -82 -452 0
-354 360 -420 0
82 296 -362 0
-299 422 -487 0
-233 -293 341 0
-94 227 349 0
-183 -225 304 0
-129 174 -326 0
33 -307 423 0
-123 -285 -350 0
-202 328 -471 0
2 26 496 0
-41 279 439 0
166 -208 -371 0
19 443 -444 0
-39 261 381 0
-97 144 459 0
-243 -302 -490 0
-136 -253 315 0
-232 362 -384 0
-137 259 -417 0
192 -401 -408 0
-147 164 495 0
-95 -155 -266 0
85 253 470 0
62 -90 378 0
54 -350 -485 0
201 386 446 0
105 161 181 0
116 239 -483 0
29 306 344 0
226 291 477 0
75 94 433 0
215 -334 -459 0
-85 -205 409 0
-116 -287 -479 0
-175 -382 -452 0
-146 -170 225 0
13 82 154 0
-141 -271 402 0
-113 -233 -275 0
-138 198 493 0
-58 146 -200 0
57 -97 -251 0
-243 311 -434 0
173 -384 399 0
-52 -61 -260 0
-176 -405 -406 0
17 377 -500 0
62 -414 -420 0
-36 -180 296 0
80 -294 -338 0
-17 -352 494 0
22 462 463 0
-63 150 220 0
-32 337 446 0
-214 406 -440 0
72 231 352 0
268 300 327 0
-365 484 494 0
60 187 -239 0
-29 -326 -499 0
-180 -273 289 0
-253 -306 -421 0
-61 -126 -135 0
223 -247 457 0
177 478 499 0
271 -365 -392 0
-67 -68 222 0
-79 401 -406 0
92 -337 -470 0
-144 345 468 0
-163 298 319 0
-21 193 -355 0
-35 231 -400 0
-231 399 -426 0
119 -456 491 0
-280 357 -476 0
199 -253 489 0
-98 246 -372 0
29 -96 234 0
17 -304 -324 0
7 -241 -369 0
222 333 478 0
-120 -234 375 0
-205 322 420 0
13 -99 -339 0
16 70 -132 0
-54 -109 412 0
-163 316 -352 0
-70 261 350 0
-52 -486 -491 0
71 150 -191 0
119 -136 310 0
101 -158 -359 0
47 -279 342 0
-59 240 267 0
10 172 -338 0
291 -366 396 0
208 -221 342 0
165 378 -403 0
99 103 300 0
-110 -194 255 0
-94 118 -192 0
-39 -234 -428 0
10 -19 -232 0
85 167 -398 0
-33 375 -376 0
5 -251 -394 0
-49 -95 484 0
-306 378 -475 0
55 224 -232 0
290 399 -435 0
141 -347 -365 0
213 -293 440 0
-74 111 463 0
126 452 488 0
-253 -431 -438 0
-17 -402 450 0
5 55 -361 0
-447 -473 480 0
67 -202 -379 0
-173 -264 336 0
-208 272 291 0
173 -320 -321 0
-425 438 -467 0
-74 -216 -400 0
-14 -83 312 0
-21 45 -445 0
165 -353 -418 0
-110 285 -298 0
62 412 495 0
154 -356 -469 0
340 355 451 0
-5 238 -481 0
291 443 448 0
-141 190 -344 0
-111 -236 467 0
130 341 -458 0
-375 477 -486 0
-77 -257 284 0
157 405 481 0
385 407 -471 0
-186 191 -237 0
111 218 340 0
91 122 140 0
-7 -44 215 0
62 -187 371 0
212 238 -392 0
-199 -361 428 0
34 -270 420 0
30 -322 -390 0
56 -89 187 0
74 -152 199 0
-283 330 360 0
30 189 -373 0
-307 -482 -495 0
21 52 -256 0
44 -50 -453 0
-75 -91 482 0
-73 -259 308 0
139 -291 328 0
-111 -151 497 0
53 -247 448 0
-310 319 437 0
-96 372 477 0
-153 -427 -471 0
-126 -362 -417 0
56 -123 308 0
214 -238 -493 0
-61 -362 -479 0
-148 273 -417 0
-181 420 -439 0
-96 -376 461 0
-318 321 -331 0
85 92 496 0
-43 294 -313 0
108 222 232 0
-168 202 394 0
126 -287 -401 0
112 122 -312 0
-59 -157 294 0
-279 292 332 0
-152 387 -467 0
129 -373 375 0
250 415 489 0
67 161 421 0
-90 -129 469 0
-268 272 476 0
74 -305 -356 0
-389 454 499 0
353 -394 413 0
-307 373 402 0
28 114 495 0
-10 -72 -211 0
-15 -136 -331 0
-252 478 482 0
146 -295 -497 0
-88 -251 321 0
17 -147 -499 0
-52 291 -380 0
-233 339 -440 0
-114 -200 -469 0
34 -302 329 0
107 265 371 0
-72 118 -201 0
-71 163 -258 0
-260 383 -400 0
-158 373 -451 0
-198 -200 305 0
56 239 -282 0
180 -322 334 0
-117 -214 258 0
-153 -287 -467 0
-66 -194 -488 0
-221 374 -485 0
-152 -190 -493 0
43 -76 -384 0
158 189 -372 0
250 -393 407 0
-19 70 428 0
-93 171 210 0
10 -80 361 0
-15 -140 -174 0
174 -267 420 0
-111 178 331 0
-144 -256 -464 0
-34 281 403 0
-13 -210 401 0
334 437 -444 0
3 -181 -500 0
56 57 -135 0
62 -301 491 0
-14 389 -477 0
215 272 -494 0
-115 -248 403 0
181 -243 329 0
29 117 -182 0
-105 179 -433 0
-221 300 316 0
-318 -458 -489 0
-41 389 391 0
87 -149 297 0
-92 -236 412 0
20 -36 185 0
-2 185 318 0
10 -73 -289 0
246 342 -470 0
-274 -314 339 0
-78 -365 -415 0
156 166 -385 0
197 353 357 0
125 -328 334 0
132 224 455 0
265 270 -441 0
139 -289 -402 0
-299 438 -489 0
-1 -53 132 0
-188 -297 366 0
84 -125 476 0
97 131 388 0
-177 283 378 0
-32 -270 -379 0
-41 134 187 0
175 271 400 0
162 312 397 0
168 252 440 0
214 -256 391 0
-45 458 488 0
109 329 398 0
-13 -39 356 0
-102 -175 295 0
-74 -79 243 0
139 -143 -361 0
94 200 401 0
-64 136 447 0
-341 -342 389 0
-19 -93 -370 0
116 -216 -346 0
-98 -172 -447 0
-98 179 409 0
369 -405 445 0
-84 121 -467 0
-149 -238 -389 0
281 294 -351 0
312 -412 -452 0
-64 169 -405 0
346 -352 -416 0
13 50 -167 0
-143 -166 -420 0
-142 -269 304 0
235 -306 308 0
-4 -82 -460 0
232 -362 -392 0
-18 -114 -448 0
61 274 353 0
41 -206 456 0
124 270 -292 0
31 42 -310 0
162 -324 -353 0
-98 99 -159 0
123 -260 342 0
-220 359 495 0
288 -432 461 0
-323 -367 -374 0
193 -238 383 0
70 -195 439 0
261 -316 411 0
105 -408 -469 0
244 -299 -371 0
-269 317 -351 0
19 21 -454 0
-94 -148 469 0
200 -345 -346 0
213 -320 -399 0
-39 -166 -235 0
-180 357 466 0
73 197 -323 0
-43 94 166 0
63 -221 358 0
-116 221 404 0
-300 384 425 0
113 143 460 0
144 -272 468 0
68 -203 -280 0
-281 -355 -357 0
221 -431 -468 0
-76 -165 -476 0
300 -304 -349 0
160 -237 436 0
199 437 445 0
240 272 -291 0
-192 -309 367 0
163 -344 -392 0
30 89 -445 0
-237 439 471 0
-32 -184 -373 0
27 183 -383 0
334 354 -359 0
266 -312 -394 0
-128 -337 -362 0
-47 179 329 0
-17 -255 495 0
22 207 220 0
141 -339 -454 0
-270 286 -478 0
-27 153 -494 0
37 181 468 0
-41 -173 192 0
134 -401 -412 0
162 337 415 0
151 201 310 0
-25 -158 -173 0
-81 319 -326 0
-56 215 -477 0
157 348 456 0
-94 117 421 0
114 128 276 0
107 279 492 0
-106 -213 476 0
13 -125 140 0
71 196 -354 0
99 413 436 0
24 -315 -345 0
18 -228 -408 0
247 304 -454 0
19 -209 227 0
13 -72 399 0
-5 -215 -275 0
-76 -220 -296 0
-79 140 451 0
179 -268 466 0
-142 -200 -349 0
104 -169 -223 0
119 158 -316 0
87 -236 322 0
103 -415 -476 0
72 97 450 0
25 294 340 0
31 242 279 0
-59 63 300 0
115 188 432 0
-8 -27 336 0
-30 280 352 0
336 419 -459 0
154 269 403 0
66 287 -294 0
206 -398 -462 0
69 414 420 0
137 242 436 0
-144 -266 -332 0
36 -57 468 0
-18 -284 405 0
36 91 -134 0
-336 -423 -429 0
105 462 489 0
-10 272 441 0
55 -91 267 0
9 -106 -429 0
-34 -192 -276 0
-84 -137 318 0
5 40 406 0
-208 -335 359 0
-358 -438 466 0
-44 357 -434 0
13 -308 -423 0
27 152 299 0
-187 232 -234 0
171 -302 464 0
-66 -140 170 0
196 -204 -319 0
164 248 -361 0
121 -163 229 0
-211 338 -371 0
-60 61 155 0
82 214 327 0
-192 286 -312 0
-83 -304 -308 0
-13 -444 -456 0
-112 -322 -363 0
-196 -298 -398 0
110 163 210 0
54 -438 -456 0
219 293 -377 0
8 151 223 0
173 187 229 0
9 170 -249 0
-71 -294 310 0
146 -412 -451 0
187 -406 484 0
-303 -471 480 0
208 301 338 0
-15 -185 -467 0
-69 -70 -289 0
-165 297 405 0
254 -322 377 0
226 397 -409 0
313 431 462 0
155 205 -302 0
105 294 -453 0
177 -198 -213 0
-291 351 -384 0
157 -202 -415 0
7 258 444 0
-93 191 -441 0
-88 220 -258 0
171 258 340 0
230 238 456 0
103 281 -429 0
59 -150 486 0
-128 -212 -279 0
87 -174 -481 0
-52 103 159 0
190 -198 199 0
319 -352 417 0
-15 151 424 0
-16 -137 -350 0
303 -310 399 0
-67 -88 478 0
-140 170 171 0
-189 -281 436 0
-262 269 -284 0
53 371 375 0
-231 261 -265 0
-145 -210 441 0
-326 398 -473 0
76 316 -408 0
67 330 404 0
161 -273 380 0
-15 -220 -491 0
201 -278 -386 0
-45 344 462 0
186 287 -475 0
137 -195 -429 0
-329 -331 -441 0
3 246 498 0
-409 -452 -481 0
-74 -183 400 0
231 -237 -465 0
30 -94 220 0
-143 186 -350 0
50 -347 -401 0
-75 206 -240 0
-336 340 -348 0
19 361 -398 0
371 -426 442 0
281 -355 -493 0
4 316 -365 0
227 289 479 0
-200 -249 278 0
-184 -242 333 0
-58 194 496 0
-104 -225 -406 0
-90 -386 473 0
23 360 -458 0
-218 368 397 0
66 205 217 0
62 289 -356 0
-52 72 315 0
299 428 -475 0
19 -140 196 0
188 -366 368 0
-70 -198 -225 0
141 263 264 0
96 -122 -300 0
-76 157 -447 0
113 211 -457 0
-74 -299 -356 0
-22 94 -227 0
-46 305 -476 0
181 184 494 0
-127 163 -203 0
88 256 -425 0
-219 -334 357 0
231 -232 -461 0
3 -378 -412 0
-212 -244 -480 0
79 -224 424 0
223 -238 276 0
207 272 -295 0
69 289 372 0
-166 -267 348 0
83 213 277 0
-20 -357 -473 0
131 -337 359 0
73 -89 324 0
274 405 457 0
49 50 -122 0
-75 141 438 0
-35 -201 -249 0
83 160 -320 0
-89 -227 -233 0
306 -359 -456 0
-246 -321 -453 0
83 228 -372 0
-5 318 -320 0
30 -138 -257 0
18 215 -481 0
-75 252 472 0
140 280 -313 0
-9 -84 397 0
70 -185 -330 0
-237 327 -406 0
-15 330 -485 0
-213 -303 -358 0
118 -354 -364 0
-242 272 -378 0
-34 252 -437 0
168 208 -353 0
-71 75 -267 0
-50 -116 380 0
-91 159 325 0
36 227 -291 0
-176 201 -483 0
9 -126 -474 0
127 316 -380 0
-194 -319 -341 0
-282 325 487 0
172 -255 -479 0
-86 220 -402 0
54 230 -280 0
-2 -199 -283 0
203 -359 -479 0
-155 -272 351 0
430 -431 443 0
-1 104 450 0
-124 155 -320 0
104 -261 -297 0
232 256 364 0
99 -198 -258 0
384 392 -440 0
95 -293 366 0
103 -196 -343 0
128 186 294 0
139 342 488 0
-48 199 -402 0
336 -405 443 0
47 -423 445 0
-379 471 -497 0
26 -59 -98 0
18 -41 420 0
-149 192 -203 0
63 249 -378 0
76 132 268 0
129 329 -441 0
94 -261 -297 0
-129 312 -421 0
-165 -191 -208 0
35 -57 498 0
41 270 300 0
-265 389 466 0
23 -152 -245 0
-275 -314 -384 0
71 -339 477 0
55 -90 -234 0
-218 245 448 0
112 -260 270 0
67 303 -462 0
-12 -371 -453 0
-98 -115 295 0
-144 -196 465 0
-29 85 -443 0
-122 -283 -357 0
-241 -297 -328 0
-19 -480 490 0
27 -274 300 0
26 -47 414 0
-131 -221 451 0
246 430 -480 0
37 73 -305 0
162 181 -260 0
-57 141 -372 0
-173 -302 -476 0
-288 -378 402 0
-7 165 251 0
161 169 -315 0
79 -114 410 0
-25 193 439 0
22 33 -447 0
-34 125 -452 0
-73 104 -204 0
284 -286 353 0
87 -111 -427 0
-112 136 407 0
-230 -249 354 0
-136 -150 -303 0
-240 316 -457 0
-368 -491 497 0
-42 164 -369 0
-75 -183 218 0
-95 248 -293 0
-122 -301 -354 0
28 183 398 0
112 203 394 0
44 -81 -441 0
-119 -403 -473 0
8 12 445 0
-277 296 -336 0
-15 99 449 0
-93 136 407 0
25 -31 203 0
57 -115 437 0
312 -378 -458 0
-181 -260 -371 0
-190 -259 438 0
191 -205 -302 0
-19 -273 373 0
55 228 316 0
112 -128 -395 0
44 -174 313 0
204 -227 308 0
121 285 479 0
-94 198 327 0
-252 432 -451 0
30 -270 354 0
38 144 -382 0
-69 217 -388 0
-137 -319 331 0
-203 -232 324 0
138 -366 471 0
-35 -300 477 0
-165 -345 -499 0
55 -278 -322 0
321 -330 -422 0
-99 395 -397 0
-263 339 354 0
109 307 434 0
-146 195 208 0
17 -374 432 0
3 -103 -398 0
-251 -329 -350 0
9 -280 -313 0
99 -198 -383 0
244 282 -352 0
111 -375 -488 0
135 144 171 0
12 -171 -412 0
-96 253 353 0
201 399 -460 0
195 -445 489 0
-4 224 -307 0
120 319 377 0
-67 -337 -403 0
4 280 -313 0
305 -359 414 0
-127 351 426 0
37 -213 444 0
-80 303 435 0
-336 409 478 0
147 159 346 0
110 -410 452 0
-63 333 465 0
276 -418 -499 0
-20 -342 445 0
-133 248 -483 0
121 338 -428 0
-245 399 450 0
136 146 -280 0
198 -366 475 0
69 -315 439 0
272 -290 -398 0
-298 -455 495 0
2 161 210 0
143 -364 437 0
-35 -215 277 0
89 -137 -291 0
-48 -361 473 0
-5 -334 -379 0
-122 185 410 0
-276 319 -379 0
-287 297 403 0
258 391 -433 0
-145 192 -264 0
176 -219 -479 0
-27 -232 -381 0
-171 -255 371 0
47 -206 476 0
-410 -414 -469 0
-220 273 318 0
-279 309 -453 0
3 -82 -358 0
25 -60 -453 0
-73 -91 -99 0
-22 31 46 0
-109 387 405 0
-297 387 391 0
118 -151 -207 0
76 256 284 0
87 -366 -399 0
-29 -96 -202 0
184 -246 342 0
12 22 69 0
60 -269 448 0
-101 183 355 0
80 110 -369 0
230 233 494 0
167 -292 -499 0
210 212 294 0
106 213 -282 0
220 -223 228 0
74 -196 232 0
185 244 307 0
7 69 -103 0
-170 -174 357 0
5 272 278 0
322 -332 377 0
51 272 -378 0
55 56 -130 0
-221 405 -440 0
63 -451 468 0
-64 156 166 0
65 177 241 0
-9 119 -329 0
51 69 -159 0
108 174 -494 0
-177 -255 -307 0
135 291 -375 0
-102 -196 -240 0
401 476 -477 0
-140 -299 411 0
-155 284 -317 0
-196 252 340 0
207 282 461 0
-199 352 397 0
-42 -282 -431 0
30 462 466 0
-183 -353 -476 0
-112 -173 296 0
188 -298 403 0
-150 -187 256 0
-28 -232 -411 0
-38 -180 -294 0
192 -349 498 0
-147 -293 -350 0
60 294 348 0
146 -389 -453 0
-250 -288 415 0
-25 81 477 0
143 -146 286 0
31 -291 325 0
136 -339 -454 0
-215 -327 463 0
120 296 -326 0
-11 -72 315 0
101 182 294 0
-143 218 -380 0
-28 -406 414 0
-81 -146 408 0
42 -218 397 0
-217 285 428 0
-46 -162 -243 0
123 -184 -208 0
-143 223 -476 0
-31 208 -306 0
63 197 462 0
382 427 -445 0
8 348 360 0
-58 68 331 0
-280 -321 -393 0
-57 150 212 0
90 208 267 0
197 -211 253 0
-126 215 320 0
-105 206 345 0
244 247 -303 0
-237 427 -438 0
19 52 119 0
70 421 498 0
83 94 -358 0
-156 -397 428 0
105 -332 499 0
-110 382 473 0
-61 -392 -452 0
233 -322 -444 0
306 -412 415 0
77 -132 -317 0
101 255 -263 0
220 238 271 0
97 171 494 0
-212 252 280 0
89 93 -160 0
-10 143 401 0
-164 203 432 0
62 348 485 0
-139 302 -322 0
-313 400 470 0
2 -212 -340 0
-36 -126 -491 0
-194 -205 408 0
105 -252 -255 0
-206 -340 -484 0
-208 -394 -438 0
-313 -320 -353 0
-190 -345 405 0
-56 -206 -415 0
-9 -226 -470 0
262 -379 388 0
7 212 441 0
123 274 496 0
192 -281 -420 0
95 -139 -486 0
170 -381 413 0
85 353 -494 0
-142 174 -245 0
276 -482 -487 0
-69 -94 -398 0
25 -119 -378 0
-120 -288 -457 0
224 -494 -499 0
121 158 415 0
248 -318 427 0
-243 -317 488 0
61 178 291 0
128 -309 -341 0
-244 307 486 0
-87 -188 225 0
220 268 500 0
-210 -289 407 0
-19 -105 364 0
69 -262 -327 0
281 315 490 0
-134 141 -389 0
-279 336 -340 0
250 -333 459 0
48 218 -411 0
-106 -149 172 0
-68 -105 398 0
-72 -303 -487 0
352 436 475 0
-45 -303 -452 0
-38 201 404 0
102 132 -226 0
35 -66 74 0
259 427 447 0
31 233 328 0
63 -243 -279 0
-143 250 -287 0
-189 308 379 0
61 63 365 0
41 -97 -227 0
-64 -94 -392 0
73 -159 450 0
85 336 498 0
-292 -350 464 0
-73 203 -344 0
119 -155 169 0
-23 46 379 0
-52 209 486 0
36 -129 375 0
-129 146 159 0
103 142 -175 0
336 -389 -453 0
-200 -237 -334 0
-278 318 457 0
14 143 -362 0
318 -332 425 0
159 184 -363 0
94 -156 387 0
79 -300 424 0
-1 -234 -477 0
50 -88 -246 0
188 -211 -289 0
-22 289 457 0
-96 209 221 0
-267 -269 -372 0
-100 259 260 0
-259 -329 -496 0
315 348 425 0
-232 348 384 0
90 245 269 0
-118 149 274 0
107 -173 -247 0
148 282 403 0
277 -333 -380 0
-95 360 412 0
-177 346 492 0
308 371 383 0
-29 388 -421 0
28 -399 474 0
-240 319 460 0
-77 -349 -448 0
-166 -230 -405 0
-2 -161 -305 0
-219 313 -435 0
48 -175 389 0
280 -301 424 0
-109 393 479 0
16 62 292 0
-55 304 445 0
-234 297 378 0
190 222 407 0
132 361 -373 0
-69 -188 -220 0
15 42 262 0
-99 334 412 0
-89 275 -385 0
-115 -365 488 0
12 290 414 0
164 -212 450 0
126 -398 408 0
250 -313 -457 0
41 -81 476 0
-39 -102 436 0
-72 296 -460 0
35 130 -494 0
-25 -110 -444 0
-92 170 217 0
-57 -245 450 0
-157 -235 -414 0
125 -450 463 0
81 152 399 0
-59 112 -317 0
-146 272 -363 0
-192 -220 332 0
197 310 473 0
-176 257 385 0
14 46 451 0
-216 -340 -471 0
-34 -199 285 0
66 364 -465 0
29 39 315 0
-42 -71 -252 0
-127 262 -340 0
-34 326 387 0
-142 178 401 0
135 -279 355 0
125 -235 -296 0
-135 -147 -292 0
-111 242 -300 0
-301 -447 -463 0
-184 -411 -420 0
-150 -434 489 0
-157 303 467 0
-200 356 -407 0
-66 -100 340 0
-83 -187 201 0
92 -103 -211 0
-165 248 -325 0
287 -410 -443 0
303 -307 -431 0
255 463 478 0
216 -291 340 0
40 132 -485 0
37 153 170 0
-42 -363 -398 0
2 -92 448 0
-98 -188 -468 0
-38 94 -483 0
71 273 -310 0
-151 -210 -364 0
-87 -262 -303 0
-340 -411 -413 0
-185 -280 -352 0
-102 -107 -390 0
336 386 448 0
-193 200 365 0
-70 279 367 0
-176 178 -399 0
195 -207 -397 0
-61 74 468 0
-299 -301 458 0
-33 -358 500 0
-130 316 427 0
-64 -115 -460 0
88 302 -309 0
69 162 410 0
6 131 -440 0
-9 -46 417 0
83 -251 -494 0
147 -233 318 0
-204 213 -313 0
391 422 492 0
377 481 485 0
11 33 -50 0
188 -260 -261 0
198 272 362 0
2 279 313 0
-59 -180 -435 0
95 300 -472 0
36 286 436 0
58 -407 -469 0
195 -293 -494 0
80 178 -317 0
-41 172 -210 0
340 -368 439 0
-27 187 -478 0
13 -415 -487 0
-191 -334 458 0
-204 -399 484 0
157 219 477 0
-23 100 -407 0
-8 -364 -442 0
34 -140 470 0
40 -63 389 0
69 307 -356 0
18 -334 -362 0
41 339 439 0
225 -234 401 0
-185 -187 -389 0
133 -182 -373 0
254 -426 430 0
-46 147 378 0
6 -306 455 0
-60 99 -106 0
-163 -359 -465 0
-186 323 -324 0
-85 -170 -390 0
289 -441 461 0
128 286 426 0
273 304 -317 0
180 375 457 0
-132 -190 -306 0
-86 -158 208 0
-23 289 496 0
-3 146 448 0
-391 450 -452 0
-195 -270 341 0
-74 -112 429 0
41 -282 -492 0
-72 102 492 0
25 243 -396 0
-253 287 477 0
-20 22 378 0
54 243 -347 0
354 -376 452 0
73 -142 299 0
-99 -328 -377 0
76 -182 -409 0
94 144 -294 0
-58 148 265 0
179 308 -368 0
-134 -307 391 0
17 244 461 0
35 40 466 0
37 96 375 0
-118 190 492 0
81 -83 218 0
166 456 486 0
137 -189 500 0
292 -356 413 0
220 -236 401 0
-13 -112 -433 0
-106 406 -466 0
23 103 281 0
169 281 -446 0
173 -205 483 0
-53 156 247 0
100 -217 -268 0
13 116 203 0
-200 323 374 0
49 -376 -402 0
321 -336 -432 0
155 -210 -463 0
-10 -39 147 0
196 291 -365 0
-129 -224 -494 0
-63 71 -304 0
-24 -145 -312 0
12 -343 -402 0
196 351 -500 0
264 -305 379 0
-36 -270 470 0
109 474 -488 0
-59 166 263 0
128 -157 308 0
73 76 197 0
-122 127 340 0
-37 -161 -339 0
-127 -253 468 0
-63 -128 -288 0
-5 -66 439 0
33 64 460 0
-81 -96 104 0
-130 263 366 0
255 276 -317 0
70 129 326 0
-341 343 -384 0
-173 -286 -352 0
238 -285 -464 0
-38 216 350 0
-223 397 -402 0
97 -116 274 0
174 347 462 0
-135 184 -475 0
213 279 -398 0
276 -380 -478 0
-75 254 402 0
-179 308 436 0
-88 -414 429 0
-8 -163 388 0
372 426 488 0
-243 311 -439 0
51 168 -391 0
-200 -315 -477 0
68 -124 157 0
-305 -318 -371 0
-24 -55 -151 0
-64 -87 388 0
123 -188 -415 0
6 49 464 0
-11 154 463 0
32 -430 -437 0
86 349 -350 0
141 -243 -462 0
-165 -211 -401 0
-66 -78 -94 0
348 -443 497 0
-61 351 -457 0
125 420 -492 0
71 412 -432 0
-17 72 311 0
63 -184 -327 0
-189 384 -391 0
-130 294 -388 0
-1 -17 -325 0
-165 344 384 0
17 296 -308 0
-228 -381 464 0
367 -373 496 0
-6 -75 -491 0
-92 274 309 0
-18 -214 -485 0
113 -254 -282 0
-95 106 -375 0
78 252 383 0
-18 288 427 0
172 -229 -363 0
-224 229 -408 0
55 192 391 0
173 348 -438 0
-8 -329 -339 0
-200 326 -358 0
-81 395 452 0
273 -401 445 0
-88 124 227 0
114 -234 292 0
101 -361 499 0
-153 -260 -491 0
143 -232 -264 0
-26 255 352 0
3 -315 473 0
46 -310 -458 0
-215 403 448 0
176 -295 -411 0
8 465 -489 0
-31 186 -424 0
-167 -307 -392 0
-143 246 429 0
-7 10 -140 0
-108 177 -404 0
-166 -358 -430 0
316 476 -478 0
-13 -92 146 0
-6 150 350 0
3 -194 455 0
-208 250 444 0
-137 276 462 0
