c description: Random 3-CNF over 500 variables and 2129 clauses
c generator: CNFgen (0.9.6)
c copyright: (C) 2012-2026 Massimo Lauria <massimo.lauria@uniroma1.it>
c url: https://massimolauria.net/cnfgen
c command line: cnfgen randkcnf 3 500 2129
c
p cnf 500 2129
111 152 -263 0
-15 -65 423 0
1 157 -309 0
-115 119 -342 0
-19 -359 -420 0
33 -52 -77 0
7 52 122 0
25 135 416 0
-226 -267 -355 0
222 -356 434 0
-178 -220 -361 0
-170 -323 -494 0
180 -391 -500 0
138 -245 -319 0
47 182 -250 0
-57 341 -403 0
-87 160 353 0
201 228 398 0
143 -331 406 0
67 -104 289 0
-38 -308 -334 0
-106 -113 162 0
-91 -98 -112 0
-22 -426 -438 0
-87 -333 338 0
9 -95 413 0
141 287 -372 0
161 -243 457 0
-189 318 -368 0
-39 405 -480 0
-8 19 -483 0
-195 -197 -217 0
-213 241 329 0
100 265 -437 0
-2 -78 163 0
-132 296 442 0
145 253 391 0
158 350 -364 0
142 211 397 0
42 276 369 0
40 147 -233 0
147 -250 341 0
-190 -224 -451 0
192 373 440 0
192 309 464 0
62 350 -446 0
-98 379 447 0
213 -411 -459 0
407 -429 -437 0
-188 242 -243 0
-47 -246 269 0
39 109 -339 0
-145 239 -309 0
44 -155 284 0
-200 250 292 0
-126 297 303 0
-122 269 272 0
-46 -126 -170 0
361 -442 451 0
42 -55 -79 0
-226 -474 484 0
-277 -349 403 0
-109 -196 275 0
115 171 367 0
-348 470 -478 0
-18 172 -292 0
145 -371 494 0
78 342 -359 0
-165 -190 480 0
113 -357 387 0
-72 164 351 0
-92 -344 346 0
98 -130 -135 0
87 109 354 0
161 -234 335 0
352 -355 484 0
45 -146 228 0
-49 231 384 0
-209 -303 360 0
112 -273 -370 0
-35 189 407 0
-27 342 -352 0
-53 -375 490 0
-144 359 437 0
253 333 466 0
-86 113 254 0
-118 -218 -287 0
162 257 306 0
48 73 -212 0
-76 112 496 0
-28 131 -498 0
-94 -156 -201 0
379 -427 480 0
255 296 435 0
-62 226 -468 0
-153 -367 -470 0
-93 208 -409 0
177 188 343 0
-125 143 304 0
-187 -205 222 0
-41 -223 -226 0
-30 -365 -437 0
-109 -157 -435 0
-30 123 417 0
-58 279 485 0
-198 -221 433 0
143 321 329 0
-35 -264 -495 0
-112 253 361 0
-248 -385 -421 0
18 247 -460 0
44 -376 -498 0
-238 -268 473 0
-161 -198 350 0
-374 376 421 0
-57 172 447 0
-291 -361 413 0
-95 -252 455 0
-208 -440 -481 0
-32 193 -479 0
-125 345 -371 0
-189 252 450 0
161 -464 475 0
62 -144 401 0
-178 -279 369 0
-311 -384 411 0
60 72 -365 0
96 125 335 0
-112 282 -302 0
90 -326 334 0
-9 -374 470 0
-127 444 -481 0
-208 297 354 0
132 192 331 0
-10 480 -483 0
231 377 -457 0
-116 326 403 0
-113 146 -272 0
56 175 -257 0
-94 388 472 0
114 -172 -440 0
-47 -268 483 0
293 -406 411 0
15 74 102 0
-77 151 480 0
152 339 459 0
109 -129 210 0
254 -298 320 0
-133 141 358 0
-164 275 -361 0
33 -269 -405 0
67 359 442 0
163 314 -442 0
-179 -222 -451 0
-127 226 -467 0
35 -334 -449 0
312 393 -441 0
-80 201 438 0
-308 338 449 0
-20 -191 -399 0
-61 155 166 0
-66 -252 289 0
-80 -346 468 0
-223 301 -442 0
-72 -215 -447 0
-142 231 434 0
-84 429 -476 0
-110 113 -321 0
-122 153 361 0
21 40 110 0
-122 200 201 0
-326 368 -486 0
55 249 301 0
-117 170 -480 0
-26 275 -391 0
48 203 -419 0
161 301 454 0
251 433 474 0
92 254 426 0
180 181 491 0
-279 -299 -351 0
21 122 -123 0
-5 27 339 0
-82 300 355 0
239 455 497 0
248 278 -426 0
130 -288 -307 0
-257 -321 -500 0
-69 -362 -492 0
250 -405 489 0
-82 298 361 0
16 158 -279 0
55 -385 -500 0
-114 218 -403 0
83 279 -377 0
-43 -303 -447 0
361 -499 -500 0
184 188 -489 0
-158 -408 433 0
-61 -251 -312 0
181 306 -437 0
-59 -97 -376 0
302 -345 -464 0
-17 -209 440 0
50 -95 400 0
-133 151 314 0
-151 -175 375 0
40 -83 -204 0
-127 390 439 0
-66 -98 -303 0
197 371 495 0
267 308 -315 0
213 -215 430 0
180 -292 -341 0
28 268 408 0
-33 -265 274 0
361 373 460 0
434 -465 -485 0
96 -273 -334 0
-96 -193 360 0
4 -432 497 0
74 163 -407 0
-283 -395 -433 0
-117 -135 476 0
-28 -102 316 0
54 121 295 0
34 -51 359 0
86 372 -375 0
-280 287 -455 0
161 -277 393 0
-140 -222 346 0
-229 -287 -340 0
-127 -143 -429 0
-191 -460 -493 0
-238 337 -498 0
-18 145 451 0
14 238 -377 0
358 407 -464 0
-55 353 412 0
-47 -447 -499 0
41 50 254 0
-257 292 -394 0
-56 -446 -480 0
15 -434 -482 0
-265 387 445 0
-39 -110 333 0
-221 227 459 0
177 351 490 0
-14 209 -274 0
201 385 393 0
228 373 459 0
49 -228 377 0
-56 -234 -369 0
-122 349 493 0
258 -333 356 0
-41 -414 481 0
-59 -157 -225 0
121 -259 440 0
5 -122 416 0
-274 -406 434 0
-47 113 158 0
-101 -380 419 0
32 399 434 0
199 -243 -330 0
-101 177 271 0
161 -352 480 0
32 -60 -198 0
-247 347 419 0
-143 145 409 0
178 -294 368 0
70 -233 -329 0
-60 -148 378 0
-246 -347 472 0
53 102 -239 0
-113 310 407 0
87 143 -324 0
-28 -140 189 0
166 375 417 0
125 215 377 0
-13 -40 -185 0
432 453 -485 0
9 302 -414 0
10 -211 274 0
57 129 -288 0
16 -169 442 0
74 206 -265 0
66 -184 194 0
-297 412 462 0
139 149 198 0
-228 -396 402 0
-34 -90 -360 0
7 65 192 0
183 -303 496 0
182 330 388 0
18 79 192 0
-111 -202 -481 0
185 -318 -422 0
-166 219 273 0
-94 95 -487 0
137 -175 489 0
-351 -371 496 0
4 -95 -337 0
-92 -241 244 0
17 401 448 0
-52 366 -371 0
13 127 138 0
-246 -436 -458 0
137 408 -480 0
295 -316 -447 0
20 -186 -472 0
186 377 -436 0
-305 -340 392 0
-77 100 -481 0
1 -36 314 0
11 142 418 0
252 -309 -359 0
53 -205 -328 0
135 -337 -395 0
283 441 499 0
-157 221 -376 0
173 353 -378 0
24 77 -147 0
-343 347 483 0
199 413 -494 0
56 102 -377 0
-47 -184 -413 0
105 -108 205 0
-149 -260 -423 0
58 -131 -367 0
-78 -88 180 0
-152 228 367 0
-110 -174 338 0
283 -307 494 0
168 -231 -355 0
-222 436 475 0
-101 271 290 0
-184 -404 411 0
-94 301 -480 0
110 116 428 0
87 268 295 0
-62 -142 -438 0
177 -426 495 0
-125 -137 195 0
14 319 382 0
-180 -419 -465 0
44 78 -203 0
281 292 -298 0
215 358 -495 0
-121 -275 -454 0
61 142 -241 0
-100 227 422 0
-218 287 -377 0
123 -271 -414 0
30 226 391 0
288 338 -450 0
-313 359 426 0
-86 -185 203 0
60 274 328 0
-154 157 -365 0
375 466 -494 0
291 -312 473 0
-12 416 -443 0
-53 -137 321 0
-18 321 378 0
-83 -156 -373 0
-3 -143 -254 0
84 149 342 0
-42 -58 212 0
155 270 -385 0
229 -329 458 0
249 -377 -407 0
284 313 -390 0
-98 138 141 0
-82 166 461 0
-46 -148 -443 0
-135 255 416 0
248 -328 -428 0
-195 -303 330 0
1 264 277 0
42 43 -457 0
-234 242 -371 0
270 -350 -379 0
-177 -266 -356 0
-50 418 -456 0
92 272 -297 0
-153 183 -487 0
-194 -207 -458 0
179 -440 490 0
-355 -419 -476 0
-225 -361 498 0
15 -253 430 0
-97 -145 -253 0
-270 296 306 0
-40 -165 -460 0
-19 -400 -478 0
-91 -148 -339 0
39 -193 444 0
-18 -315 -333 0
-76 134 -241 0
-280 -297 -302 0
336 -398 477 0
-116 205 386 0
-211 260 -455 0
-163 -255 264 0
213 384 -401 0
339 -347 384 0
29 170 -335 0
-208 -306 420 0
135 160 -465 0
-255 383 390 0
355 383 -430 0
87 187 488 0
-139 -361 454 0
83 -320 -396 0
89 -158 -235 0
-98 -209 -376 0
265 380 -440 0
-38 74 -182 0
-235 -435 -472 0
-44 -454 459 0
-31 -411 468 0
-4 -383 493 0
179 -272 359 0
7 245 259 0
-339 382 438 0
288 -384 -416 0
98 194 308 0
250 -261 453 0
-297 387 470 0
89 -128 -411 0
129 398 405 0
64 -275 299 0
122 -145 -280 0
-164 243 487 0
-60 403 422 0
-24 135 356 0
218 -263 427 0
91 -121 387 0
101 212 -307 0
-53 355 375 0
-57 -117 -496 0
-104 113 420 0
-214 296 -324 0
202 -258 -298 0
69 92 -485 0
71 -167 450 0
422 -489 -492 0
-187 275 406 0
156 294 295 0
-240 305 469 0
-23 -150 415 0
-2 -280 318 0
289 -368 -444 0
-24 143 454 0
-138 198 284 0
147 -228 485 0
-27 144 409 0
15 143 200 0
-159 -351 420 0
-266 -314 -496 0
-175 -318 -495 0
180 372 -425 0
58 68 -95 0
-330 -454 471 0
-179 231 -392 0
-132 198 -211 0
2 -254 320 0
224 422 424 0
-3 -296 -459 0
33 154 -367 0
-74 333 -440 0
96 226 -427 0
-381 399 431 0
174 233 450 0
-105 226 227 0
-44 -308 -362 0
77 -270 433 0
-241 -428 493 0
231 -356 -413 0
82 -305 -375 0
-31 -382 482 0
-70 182 -445 0
-80 -214 470 0
-261 -398 -400 0
-88 99 -234 0
-362 408 459 0
54 -277 495 0
-146 322 -335 0
-32 346 420 0
42 104 -201 0
-176 233 432 0
294 -303 -384 0
324 351 -396 0
126 191 -312 0
141 268 -387 0
196 203 253 0
-80 -189 238 0
316 349 -405 0
91 -141 291 0
-101 171 -381 0
-67 -187 217 0
-79 225 351 0
-219 345 -426 0
330 -352 -432 0
12 -226 427 0
230 -244 -465 0
71 -192 -466 0
135 176 359 0
11 409 -434 0
-66 121 -186 0
-19 209 -451 0
35 -316 470 0
29 99 -148 0
120 211 -238 0
-283 -367 377 0
116 -157 375 0
152 -294 448 0
-99 168 -171 0
33 -222 431 0
-60 95 -124 0
-127 214 -280 0
173 392 441 0
-35 -74 289 0
-2 202 367 0
-146 477 -488 0
-173 263 -477 0
-27 212 -365 0
118 120 -194 0
-332 -419 -474 0
-16 -92 -464 0
-173 -334 -471 0
33 287 467 0
21 295 -435 0
110 -179 278 0
-177 -211 321 0
-380 404 453 0
-140 -226 321 0
-185 -222 372 0
-82 115 -259 0
-299 -400 460 0
-4 384 407 0
179 218 360 0
90 121 -234 0
-252 471 -495 0
285 -308 322 0
272 386 388 0
-221 -283 484 0
35 245 489 0
140 194 -333 0
-6 315 465 0
-42 -158 -478 0
-69 -205 -347 0
123 306 466 0
-140 -373 -421 0
119 214 418 0
232 -289 405 0
193 379 -467 0
-112 -224 279 0
-37 -213 291 0
35 -80 287 0
-37 -246 -285 0
234 -443 -492 0
-192 397 -451 0
-54 -150 -375 0
-9 -82 148 0
-250 -292 -314 0
44 291 347 0
-30 -107 -175 0
229 307 360 0
-63 255 456 0
-187 -341 451 0
-121 228 358 0
-101 120 -282 0
173 -284 301 0
-31 264 -473 0
-3 -62 184 0
-77 -122 -209 0
-123 359 459 0
123 -313 -422 0
-98 119 285 0
-79 352 475 0
179 215 -287 0
-84 -326 -420 0
-95 293 -421 0
37 174 352 0
-300 311 -339 0
91 285 -345 0
180 303 352 0
18 180 -487 0
-61 77 447 0
-107 -267 270 0
8 202 -404 0
8 141 473 0
-35 77 140 0
108 384 -407 0
48 199 488 0
224 -228 236 0
93 356 -407 0
118 -276 -443 0
-32 -153 448 0
125 -160 -192 0
-32 230 233 0
324 364 372 0
-119 260 277 0
-116 245 -498 0
-63 193 -451 0
-290 -382 452 0
-195 -218 -276 0
209 -287 499 0
-384 -388 -416 0
-211 -225 -362 0
-88 -248 323 0
79 337 455 0
78 405 491 0
-215 375 473 0
179 -292 -361 0
-68 271 500 0
-216 379 459 0
92 -115 -181 0
-44 -347 -430 0
-101 373 478 0
185 235 329 0
308 351 -439 0
13 23 59 0
123 224 -232 0
-10 122 313 0
334 382 429 0
-106 -265 -428 0
-17 -450 493 0
187 313 417 0
-111 325 477 0
-48 -91 296 0
-176 -467 477 0
-158 225 -342 0
-115 -236 -347 0
127 -323 477 0
-136 -234 -405 0
89 342 489 0
39 -151 -217 0
209 -263 372 0
-147 -269 337 0
42 287 387 0
-146 368 -397 0
-239 -287 430 0
180 184 445 0
123 202 439 0
-176 -260 496 0
180 -226 -301 0
154 337 -471 0
105 -224 -314 0
199 -275 -291 0
129 -230 -313 0
-310 -348 410 0
-31 121 468 0
-78 345 452 0
-41 49 68 0
-332 -384 -408 0
148 -298 398 0
-200 -293 -453 0
-32 431 -451 0
-40 151 320 0
156 220 296 0
72 194 254 0
-157 276 -384 0
13 220 250 0
61 -336 350 0
69 292 -362 0
-247 413 -484 0
-157 -167 -436 0
-99 153 326 0
168 258 -438 0
242 271 445 0
155 290 -484 0
190 231 360 0
-207 -334 367 0
-172 -217 431 0
-49 368 470 0
322 385 407 0
36 322 -426 0
10 184 -424 0
144 225 -352 0
-264 -427 -477 0
47 -407 -454 0
69 393 -441 0
-5 -478 494 0
-197 -284 340 0
-48 -64 -496 0
-200 330 -422 0
124 202 -231 0
-12 405 -454 0
72 -318 -346 0
105 253 436 0
117 -202 -281 0
-45 216 436 0
173 174 450 0
-118 166 204 0
-274 -387 -493 0
125 -219 -395 0
-57 269 -395 0
208 293 479 0
36 62 281 0
30 90 387 0
-161 -398 -500 0
107 -356 467 0
-80 -361 -427 0
-164 -364 -434 0
-55 286 466 0
-235 -264 403 0
101 -385 -439 0
-173 313 -359 0
-176 181 -346 0
-9 331 -499 0
-170 247 -404 0
70 185 226 0
-103 -188 -222 0
-140 -159 495 0
-3 90 377 0
173 182 232 0
37 -208 420 0
-269 -374 392 0
23 173 269 0
79 206 246 0
44 334 -358 0
174 266 -282 0
-139 -343 -389 0
-119 151 438 0
10 343 403 0
12 51 208 0
94 -238 -243 0
69 94 -470 0
-84 -184 450 0
249 -284 373 0
65 -149 228 0
-150 288 -344 0
-144 -327 -395 0
193 -275 -415 0
-35 -290 -310 0
-51 288 -368 0
35 -200 310 0
1 -8 196 0
51 260 386 0
74 -117 316 0
-189 -352 -477 0
-41 136 427 0
-80 -299 447 0
218 228 -273 0
34 250 483 0
-274 276 -331 0
90 339 489 0
50 -257 356 0
21 -145 -300 0
-250 392 -412 0
6 -68 368 0
128 -452 -489 0
-8 -14 -447 0
34 -105 349 0
319 381 -439 0
-223 -282 -304 0
50 -196 -214 0
-37 75 -181 0
-92 -234 283 0
-101 166 -181 0
111 223 -304 0
86 -154 -380 0
-140 -162 -344 0
-73 299 -309 0
288 -396 -423 0
-84 -129 -187 0
266 324 330 0
-37 -301 481 0
-126 151 -353 0
-229 380 -432 0
-222 -364 -468 0
86 207 -332 0
-29 234 -493 0
11 -59 310 0
160 -347 -444 0
-206 -210 431 0
246 -321 -328 0
-171 222 -495 0
-188 -189 203 0
135 159 -460 0
127 221 -324 0
76 -282 -472 0
-87 202 -205 0
2 -124 -270 0
104 269 426 0
64 -218 319 0
-149 -327 424 0
-66 410 478 0
124 -207 -342 0
-155 203 -307 0
13 16 160 0
236 -334 -447 0
28 191 -436 0
357 -416 449 0
-57 164 -221 0
8 -107 490 0
93 136 -280 0
-2 -48 286 0
34 300 326 0
-44 133 -296 0
-31 -142 -348 0
-35 120 489 0
52 66 305 0
149 -413 491 0
-73 224 -471 0
90 -260 341 0
130 -289 417 0
-42 43 -71 0
-174 441 -490 0
122 171 -274 0
-117 -220 -375 0
299 -375 -413 0
22 313 410 0
-94 217 -498 0
-171 -304 -407 0
104 -244 441 0
-62 227 261 0
-60 91 121 0
-55 420 -488 0
220 253 480 0
-148 -316 328 0
162 -185 -277 0
176 -296 -480 0
5 -69 -467 0
8 -50 -122 0
-41 97 -249 0
245 -272 -273 0
85 -296 479 0
-57 320 358 0
31 185 209 0
267 -272 -380 0
-94 215 -441 0
27 63 380 0
-89 -186 420 0
119 153 -159 0
96 -105 -406 0
46 -230 429 0
88 395 398 0
-409 -446 -465 0
213 235 350 0
-76 -241 -246 0
45 88 -385 0
67 248 -476 0
-32 287 -491 0
-95 -104 -287 0
15 -180 -365 0
-130 -183 -418 0
15 -268 -401 0
-157 165 -244 0
-18 -200 297 0
43 143 -204 0
20 185 -234 0
-230 271 457 0
-5 104 259 0
253 -321 -331 0
-101 161 348 0
220 300 404 0
158 -193 267 0
-186 -249 -262 0
-50 406 -496 0
-165 -479 -500 0
-31 -382 -393 0
-58 122 463 0
-296 467 -493 0
164 -210 -433 0
-39 -348 -438 0
154 -430 452 0
-31 236 -282 0
149 382 -465 0
16 -251 278 0
-101 319 483 0
84 118 322 0
-149 -249 -348 0
21 -393 398 0
-234 -291 408 0
177 -305 -462 0
-81 317 344 0
-10 19 446 0
98 117 395 0
-39 310 375 0
32 -56 204 0
-210 300 420 0
114 297 -470 0
-228 -261 -355 0
197 -371 432 0
48 -413 -479 0
16 137 490 0
196 -450 476 0
-250 -337 352 0
150 244 259 0
-166 362 462 0
-68 -168 329 0
-199 239 295 0
137 198 -271 0
-16 -402 412 0
118 467 -488 0
-163 -280 433 0
-35 -114 201 0
175 -388 431 0
-183 230 265 0
-53 -170 -410 0
153 -303 -306 0
14 -243 302 0
102 109 -337 0
165 -331 378 0
-66 -137 -146 0
-112 299 367 0
308 -363 -378 0
388 -475 483 0
120 -164 369 0
-52 278 405 0
-82 -334 -446 0
-15 79 -128 0
-10 -37 -53 0
262 325 403 0
-45 80 -416 0
246 258 491 0
177 -225 -371 0
93 -224 367 0
-174 -246 -321 0
-187 270 467 0
-134 321 -354 0
79 144 354 0
176 -298 -343 0
-2 -185 193 0
-148 -425 -452 0
44 -303 371 0
-343 417 -488 0
29 -273 285 0
-205 -280 -367 0
272 373 -468 0
26 -207 486 0
-77 173 455 0
-139 -161 455 0
-267 -351 471 0
99 -419 485 0
-182 277 281 0
232 -298 -445 0
-19 124 475 0
-120 175 290 0
104 328 430 0
35 106 -267 0
296 -342 -412 0
35 120 178 0
-108 202 -215 0
-11 96 196 0
198 382 441 0
-10 152 -429 0
-69 -355 395 0
74 85 -358 0
-105 -199 -341 0
-175 422 453 0
82 -123 274 0
54 206 342 0
93 343 -441 0
317 -351 371 0
226 383 451 0
232 -478 -497 0
21 -341 -432 0
187 194 221 0
-252 -406 416 0
-134 -286 -417 0
223 254 -294 0
-168 -293 461 0
-86 -114 400 0
-40 60 -421 0
-323 -421 -483 0
125 -259 -281 0
23 -92 -473 0
-400 -408 -438 0
12 -34 96 0
46 334 396 0
70 -306 329 0
126 264 -324 0
-182 193 -416 0
19 76 255 0
-167 323 456 0
243 247 464 0
-174 225 484 0
-36 -70 -457 0
-188 333 443 0
345 -378 -402 0
-190 350 437 0
-228 -272 430 0
110 130 388 0
53 221 -306 0
47 -311 -398 0
37 143 389 0
-222 -248 -322 0
42 217 -381 0
219 426 -447 0
301 -327 434 0
-130 216 -392 0
13 -325 -393 0
67 118 489 0
214 -324 -434 0
-4 55 130 0
-56 73 -186 0
133 -443 -451 0
47 176 -459 0
65 -249 -480 0
55 -113 418 0
26 -37 309 0
137 -333 -345 0
359 370 467 0
-181 -322 -409 0
204 242 -469 0
-212 354 -372 0
-123 293 -488 0
-55 169 443 0
-280 424 496 0
64 281 -311 0
-155 254 -453 0
136 262 459 0
-295 334 484 0
-96 -414 428 0
207 -402 493 0
-219 286 426 0
-47 295 371 0
66 211 -431 0
22 98 -367 0
158 -206 -223 0
12 -158 373 0
-203 355 -500 0
-86 -331 478 0
-165 -281 314 0
-220 463 484 0
-43 -85 -344 0
-297 -363 438 0
21 -164 -393 0
11 -84 -110 0
132 -232 307 0
43 -341 -357 0
16 215 426 0
63 -158 -485 0
-103 -186 489 0
-203 -367 408 0
-135 -144 -331 0
-74 211 -359 0
-34 -225 -386 0
35 -429 481 0
186 -309 363 0
23 290 313 0
117 -143 -246 0
201 294 391 0
115 289 342 0
-3 -85 -152 0
-198 -222 -302 0
39 -315 -443 0
77 288 -353 0
-182 409 441 0
267 -280 374 0
-146 178 -423 0
34 -64 342 0
39 -156 -232 0
50 149 -260 0
-141 -454 -471 0
121 -386 400 0
131 335 -397 0
225 -387 -449 0
-4 295 325 0
58 -359 -473 0
-103 -261 -451 0
-147 -195 -458 0
-461 -462 470 0
22 347 -430 0
163 -224 387 0
-96 -110 -302 0
172 -242 312 0
26 42 263 0
-64 -439 482 0
-119 -285 389 0
-280 -344 -373 0
308 -385 421 0
92 125 344 0
144 -431 450 0
-185 -250 343 0
90 325 -422 0
-189 238 314 0
60 110 132 0
174 -437 463 0
-22 -274 421 0
-17 -325 418 0
86 334 356 0
-165 -309 -416 0
-357 -392 -467 0
142 162 -237 0
-80 -165 -417 0
45 119 276 0
-54 -194 293 0
-290 303 -386 0
92 -438 449 0
-13 43 -151 0
-2 425 493 0
261 -437 458 0
270 345 350 0
41 -303 -453 0
117 180 226 0
-28 -167 382 0
-269 316 354 0
-200 210 -295 0
18 113 -189 0
59 -338 -483 0
82 -146 398 0
99 -148 -249 0
230 409 -497 0
-74 404 -445 0
133 -163 470 0
-56 -196 337 0
260 -341 -480 0
357 455 -465 0
101 110 279 0
138 -269 -378 0
32 303 324 0
35 118 170 0
157 376 -392 0
114 -321 -454 0
-148 -256 -373 0
181 275 283 0
-300 -406 -421 0
-314 379 -446 0
223 -280 445 0
-240 -313 318 0
84 194 225 0
262 361 494 0
242 278 472 0
293 378 -439 0
62 343 -473 0
-99 125 -227 0
-39 -190 320 0
-239 -287 299 0
-41 77 -235 0
81 -223 -352 0
-234 281 -405 0
-27 362 -485 0
-47 -193 -348 0
353 458 482 0
42 -78 -433 0
263 -406 -422 0
-35 108 -174 0
115 -318 353 0
-46 157 -407 0
-35 -267 431 0
-120 461 486 0
-300 320 432 0
75 -260 -357 0
246 340 -415 0
135 464 495 0
-72 380 488 0
-26 151 -442 0
31 306 -468 0
67 305 322 0
-42 -179 389 0
47 -90 -142 0
-237 289 -420 0
193 -255 -258 0
-109 133 -220 0
-80 185 447 0
116 385 -421 0
74 245 -453 0
3 113 -373 0
28 -166 -406 0
-63 -176 259 0
-8 -340 350 0
-17 77 230 0
110 -332 408 0
19 245 329 0
1 -223 -433 0
-152 268 -467 0
114 -361 -453 0
-86 -256 284 0
-43 229 376 0
404 460 -461 0
21 -228 -412 0
-34 -143 -447 0
-142 -229 332 0
-105 129 158 0
218 393 407 0
-64 388 -488 0
166 -189 283 0
-396 426 439 0
180 257 -457 0
169 243 -293 0
-262 -394 480 0
215 229 -403 0
-213 -367 -484 0
-240 -389 465 0
221 292 388 0
-143 -278 -335 0
-89 -105 -233 0
35 -167 179 0
-286 309 -393 0
-184 218 294 0
-28 339 445 0
86 -438 -466 0
-103 105 -326 0
-65 253 350 0
-127 311 342 0
111 -186 -438 0
-48 64 -410 0
18 -37 245 0
-8 105 -111 0
-206 -222 394 0
-17 -261 -419 0
201 -230 -499 0
117 172 -343 0
-219 -224 500 0
56 -123 391 0
-169 -271 418 0
66 -322 430 0
-273 285 -332 0
-83 -347 -484 0
134 205 -420 0
141 416 -490 0
-119 127 -282 0
-47 128 -233 0
-244 320 -489 0
-69 81 408 0
-127 341 -458 0
-202 -308 -405 0
-50 -323 410 0
-231 399 -467 0
255 -381 -448 0
60 371 412 0
-274 443 -485 0
207 -208 -424 0
70 -228 371 0
-91 -249 -417 0
-159 -349 -389 0
84 -149 287 0
302 -362 381 0
-96 152 -162 0
-269 -285 -370 0
-296 -322 -452 0
-198 -369 -409 0
245 265 -370 0
-159 395 -418 0
109 263 343 0
-44 228 -302 0
-102 321 -348 0
395 396 413 0
291 389 -485 0
-152 185 -454 0
90 -170 -177 0
-281 -299 331 0
-211 260 391 0
-64 128 171 0
285 -392 -431 0
360 390 421 0
152 -254 289 0
92 408 -451 0
-34 192 447 0
27 -44 186 0
114 210 -230 0
-73 -123 -158 0
113 -327 330 0
136 140 -249 0
-132 416 -451 0
-6 -84 301 0
284 -313 336 0
19 386 -437 0
94 -136 -218 0
28 -75 326 0
45 224 410 0
-164 196 471 0
97 -334 420 0
193 364 -455 0
-155 -180 -377 0
-99 -137 222 0
-14 135 -352 0
-16 112 406 0
-33 -292 305 0
63 107 -254 0
53 -66 -210 0
90 97 476 0
-241 269 -353 0
-179 -252 -421 0
98 362 -417 0
49 191 -391 0
105 215 -468 0
204 -300 -484 0
32 -184 -190 0
-96 -294 -482 0
121 293 478 0
-59 160 485 0
-41 154 390 0
96 -139 417 0
-210 262 -438 0
-350 -412 -440 0
-74 -213 322 0
158 -245 -408 0
92 237 353 0
-19 -67 -381 0
113 -138 190 0
162 172 -300 0
30 81 -177 0
-35 -83 111 0
62 365 420 0
-29 128 -191 0
-106 -295 302 0
86 -99 -396 0
-168 -366 -450 0
5 124 353 0
126 253 358 0
-62 409 -467 0
128 -257 -425 0
250 -360 367 0
128 -437 -496 0
93 206 -326 0
-137 -153 -212 0
-11 65 -414 0
57 -177 359 0
-188 323 470 0
-192 -238 -406 0
19 169 -215 0
-64 94 246 0
-72 258 386 0
71 -257 -494 0
212 390 -493 0
157 -159 298 0
-31 253 -457 0
194 -341 -483 0
-142 -174 -424 0
-189 198 400 0
-133 401 -486 0
-8 -42 63 0
-21 84 -332 0
-91 -175 -219 0
-184 329 395 0
165 -456 490 0
11 -255 -372 0
294 -402 -439 0
137 173 351 0
-99 114 202 0
99 -262 366 0
11 -431 432 0
29 -288 -450 0
160 -172 -214 0
-167 -351 -488 0
173 -278 412 0
58 -63 -201 0
-3 -38 172 0
-164 -402 444 0
192 -425 -484 0
31 -157 368 0
-97 304 -391 0
185 230 388 0
-36 417 454 0
348 -454 465 0
297 -413 494 0
96 -198 216 0
12 -332 462 0
-52 187 -500 0
231 -314 391 0
-200 -300 -365 0
221 368 -468 0
-226 -386 496 0
-170 397 -494 0
257 263 -313 0
-100 -147 -307 0
331 393 -446 0
9 -210 -262 0
19 -319 326 0
188 -442 -456 0
179 432 447 0
-103 -189 306 0
-260 301 -478 0
309 -446 -465 0
209 -272 399 0
-50 127 -499 0
-94 -111 -126 0
-145 239 416 0
-108 -126 -455 0
82 204 280 0
-168 -232 463 0
-128 -374 431 0
167 184 357 0
251 259 -396 0
65 -159 -290 0
-108 299 380 0
235 -330 430 0
137 190 264 0
24 389 428 0
-51 128 -321 0
-32 40 103 0
86 200 259 0
-11 228 473 0
-152 -200 202 0
-108 -167 449 0
-18 -380 -433 0
-43 -217 257 0
-15 -29 -353 0
-6 214 328 0
82 363 -400 0
29 -62 -177 0
183 330 404 0
104 223 -334 0
-144 242 276 0
-239 -377 -435 0
71 -97 -148 0
-83 -163 -470 0
-329 336 -378 0
-254 449 -493 0
-4 251 438 0
232 352 415 0
-24 66 -84 0
115 -313 -469 0
120 -307 496 0
-226 -419 437 0
114 148 -318 0
44 122 -331 0
106 199 -315 0
-19 244 -374 0
-166 220 -277 0
243 -256 -450 0
-44 344 398 0
-26 241 415 0
-146 200 362 0
66 -290 -311 0
115 315 440 0
-209 -419 -480 0
-45 -112 468 0
13 174 290 0
52 112 236 0
5 -65 -275 0
-97 195 311 0
-156 -160 301 0
35 408 -443 0
77 111 -280 0
75 152 -399 0
-129 371 498 0
-10 -44 83 0
286 362 458 0
14 -258 -433 0
177 -179 492 0
88 162 356 0
196 279 -368 0
27 -28 33 0
-240 -265 -355 0
-46 55 -388 0
55 -89 -496 0
27 -33 261 0
137 -191 286 0
-5 494 496 0
235 -342 371 0
109 120 -172 0
75 262 -283 0
313 386 440 0
184 -369 394 0
84 -104 -204 0
126 -152 449 0
221 264 435 0
-47 -300 -408 0
-210 385 -394 0
88 476 -479 0
132 -133 -134 0
-177 480 492 0
78 193 265 0
-135 259 364 0
-167 -290 478 0
-64 189 267 0
-193 224 240 0
-465 -489 -493 0
-236 431 458 0
-169 380 500 0
273 330 -452 0
-67 -266 351 0
151 241 471 0
-55 150 436 0
339 357 424 0
-307 326 382 0
54 160 -307 0
-178 -241 404 0
147 -232 292 0
127 277 -338 0
-55 -158 -459 0
-167 -179 -371 0
-52 448 453 0
37 317 444 0
45 286 -480 0
161 -234 363 0
-113 -238 265 0
-66 -101 304 0
-223 385 -410 0
13 -105 399 0
-140 -322 385 0
-31 -262 487 0
204 -352 468 0
-87 122 -253 0
107 -281 481 0
-329 351 -368 0
109 -120 -489 0
-74 -378 -472 0
16 -168 200 0
-173 350 482 0
100 -209 460 0
-76 -291 -485 0
-191 -311 -352 0
226 -308 -451 0
-7 -40 89 0
-74 204 -435 0
79 -86 423 0
41 127 -292 0
150 403 -424 0
-53 163 249 0
-141 192 -332 0
242 -318 -381 0
30 188 220 0
88 243 -282 0
166 412 -424 0
333 438 -485 0
294 309 -333 0
199 327 -381 0
-93 -333 -370 0
-23 261 -456 0
-10 67 80 0
-264 -327 441 0
-173 251 483 0
36 219 271 0
283 427 -468 0
10 387 -424 0
403 -410 -493 0
-14 339 471 0
313 368 408 0
-112 243 360 0
101 -242 -414 0
180 -468 469 0
85 -157 -313 0
-62 172 -388 0
195 467 500 0
17 -120 -337 0
-162 -250 314 0
119 174 -469 0
-183 -294 -352 0
-139 -420 -481 0
-11 210 -381 0
-71 -191 411 0
-95 -113 430 0
-253 -281 -302 0
86 -258 441 0
128 -201 449 0
-291 -316 -486 0
-92 344 -361 0
51 -202 307 0
-38 71 236 0
46 134 322 0
162 -344 -427 0
-148 -294 -457 0
-4 164 165 0
-39 129 -160 0
416 -418 423 0
-61 -111 343 0
71 170 -259 0
71 -87 -258 0
54 -216 -228 0
201 209 270 0
-84 -197 -405 0
-125 168 -377 0
68 -216 313 0
-170 270 -435 0
-44 92 381 0
96 -373 -452 0
-213 -225 -338 0
-128 347 -414 0
23 216 -379 0
153 -297 476 0
-73 -366 -486 0
-183 238 309 0
86 123 -175 0
47 99 -329 0
146 -213 -480 0
-69 -237 -496 0
-23 441 494 0
-101 146 397 0
83 100 -390 0
37 98 -210 0
-1 146 467 0
-248 -249 -319 0
70 -324 373 0
-7 432 452 0
53 402 -448 0
-417 -462 484 0
-75 353 -471 0
102 328 437 0
-136 -217 -455 0
21 124 -413 0
-331 -348 405 0
-146 337 462 0
-95 -298 -313 0
77 318 -499 0
4 -165 486 0
-165 -375 -397 0
-47 284 -373 0
1 58 -92 0
-209 -381 491 0
-27 200 -419 0
-7 83 264 0
65 -114 306 0
207 -378 472 0
-65 -277 441 0
-82 -160 401 0
167 -428 -496 0
62 243 424 0
59 164 -471 0
-89 -182 -337 0
236 400 -454 0
-182 258 407 0
-78 -409 -412 0
-74 -124 199 0
-83 318 -407 0
-72 162 284 0
217 481 491 0
-227 353 402 0
135 -207 -221 0
153 -369 -487 0
-10 -337 442 0
-346 -379 402 0
-50 -145 157 0
184 280 299 0
-248 -345 484 0
2 -203 -287 0
70 -226 479 0
141 191 266 0
6 10 -216 0
-285 -391 499 0
-125 -255 -445 0
-79 -398 -453 0
127 280 -378 0
173 -195 393 0
-274 477 489 0
31 -179 290 0
-16 378 -413 0
207 -324 -408 0
66 -227 434 0
-95 172 -289 0
-48 -335 -468 0
-119 313 -474 0
339 -442 -484 0
-53 116 466 0
179 -390 478 0
-157 171 -235 0
-2 -363 -471 0
60 71 172 0
-134 -152 -489 0
214 250 -409 0
63 -157 -315 0
-74 399 -498 0
-25 -36 173 0
2 -174 224 0
121 -226 -348 0
4 227 -462 0
-203 277 -338 0
-90 225 -406 0
93 325 -394 0
185 266 468 0
147 392 -446 0
302 373 -447 0
16 116 441 0
-168 -281 371 0
279 360 -436 0
-214 -455 461 0
116 117 -489 0
88 -216 399 0
163 337 -440 0
-168 -386 -424 0
-29 -156 376 0
-226 387 445 0
164 -171 495 0
95 -328 342 0
33 360 -438 0
-33 49 -119 0
-1 91 348 0
-37 -125 460 0
54 -220 329 0
-152 278 361 0
13 -38 499 0
72 -172 303 0
-437 -476 477 0
-48 -253 -465 0
313 332 -454 0
157 -181 -433 0
-38 215 432 0
164 -365 -495 0
51 -238 -294 0
97 156 -468 0
-325 342 438 0
-228 -414 433 0
54 152 315 0
5 182 -214 0
-423 468 494 0
77 -214 -368 0
-71 134 -293 0
170 177 -272 0
141 305 -490 0
-154 -331 -407 0
-51 -79 164 0
255 -429 438 0
226 -367 485 0
147 241 381 0
23 -247 -412 0
236 -284 481 0
343 369 472 0
-278 -365 -498 0
304 306 309 0
37 491 495 0
-168 191 -408 0
-4 212 -387 0
-245 -311 410 0
-119 -195 -477 0
173 -248 -362 0
149 -195 -357 0
11 56 395 0
164 -317 -351 0
55 295 -307 0
115 -234 -370 0
15 -182 -225 0
153 -173 -466 0
94 -306 -369 0
97 338 -448 0
-129 -192 -267 0
189 -275 -331 0
-231 329 -490 0
-117 -161 -456 0
-112 193 -353 0
27 -77 -428 0
-117 351 463 0
34 86 95 0
98 -103 -332 0
99 -224 274 0
49 217 254 0
118 -155 -496 0
12 153 475 0
-2 53 -254 0
79 -182 -272 0
2 -309 413 0
-112 142 -366 0
47 -357 -425 0
-204 264 -345 0
-148 -285 373 0
-74 -409 -445 0
215 239 353 0
-204 -490 495 0
-399 423 -463 0
289 -455 -477 0
247 263 472 0
-212 -428 460 0
33 156 404 0
38 -374 -386 0
3 136 344 0
-141 -158 319 0
-125 255 -351 0
107 -336 448 0
-101 241 420 0
140 -261 -344 0
-24 244 -333 0
141 307 -357 0
226 -253 314 0
62 -97 -251 0
126 235 275 0
-277 -426 -454 0
-91 168 -230 0
-1 210 322 0
301 -326 381 0
-131 215 -439 0
134 202 209 0
-2 -61 96 0
-286 446 493 0
138 -241 417 0
-216 -300 -436 0
366 -397 -482 0
-229 -261 486 0
103 -341 -386 0
-178 212 476 0
-192 -235 433 0
111 135 -333 0
121 301 -454 0
-201 -237 499 0
-269 289 -417 0
-73 125 -220 0
-48 -175 319 0
16 -236 265 0
-256 281 432 0
-7 -89 374 0
13 262 -267 0
14 -49 188 0
75 -320 -425 0
10 -138 -294 0
-243 -344 373 0
-19 377 -488 0
-253 -319 -381 0
-236 -390 451 0
129 -407 -477 0
-228 -248 464 0
312 -356 433 0
242 -455 471 0
-90 -151 321 0
-412 -460 -495 0
138 -155 262 0
-220 305 357 0
76 159 412 0
21 109 -287 0
-122 -123 160 0
29 277 488 0
-128 187 320 0
-57 -383 -388 0
9 -130 -271 0
-24 -104 150 0
87 -299 -326 0
119 -243 -344 0
-51 153 -260 0
85 94 441 0
149 330 405 0
39 149 182 0
-8 467 475 0
315 -456 464 0
-67 77 267 0
153 187 -312 0
-103 301 -458 0
-99 -132 241 0
300 -395 430 0
-238 -337 -431 0
-102 239 -424 0
302 439 472 0
-60 479 -489 0
183 -207 -378 0
-31 62 -383 0
-16 99 -143 0
41 65 -441 0
-163 -369 471 0
131 140 342 0
-56 221 349 0
298 -311 -399 0
247 438 459 0
128 -349 491 0
-119 -165 232 0
-174 236 449 0
44 -107 210 0
-59 -85 470 0
62 -364 477 0
-143 285 -325 0
133 -184 297 0
-13 -325 464 0
191 -312 361 0
-8 -263 443 0
-82 236 -367 0
-95 151 350 0
89 349 402 0
41 350 -461 0
-108 -210 444 0
-65 439 451 0
-116 -204 428 0
28 263 451 0
-44 -318 430 0
145 181 -481 0
76 -239 -281 0
169 -342 367 0
263 -280 -497 0
-110 -373 -482 0
24 -65 172 0
-66 -222 -380 0
-59 335 407 0
204 -252 469 0
-41 244 -333 0
156 324 451 0
320 -379 452 0
59 -358 -370 0
-64 -324 433 0
-30 -408 -419 0
-198 249 -318 0
65 329 453 0
210 366 479 0
28 -116 -428 0
-87 -360 495 0
127 -139 -383 0
-15 -26 -266 0
-42 118 481 0
-156 171 -465 0
12 184 354 0
35 39 173 0
-7 90 -404 0
89 -188 -417 0
-47 154 -284 0
-53 281 462 0
21 118 -324 0
26 -206 -379 0
-108 187 -290 0
184 -278 -311 0
-100 -194 324 0
-70 -218 491 0
29 -114 497 0
-69 228 229 0
-160 188 473 0
81 -179 317 0
-275 -286 290 0
-55 -331 368 0
-49 338 -349 0
-93 -128 -238 0
-141 230 -450 0
43 -100 -281 0
-142 -295 330 0
110 238 263 0
162 -316 440 0
-146 362 401 0
-75 76 -412 0
-366 399 -470 0
-10 -188 -468 0
266 292 -493 0
136 229 384 0
56 -245 -453 0
160 -249 -488 0
69 94 390 0
8 -10 -406 0
168 240 -402 0
10 313 -448 0
-100 -156 -202 0
101 228 -338 0
53 -92 144 0
110 371 452 0
-1 76 306 0
163 -346 -487 0
60 309 322 0
347 -365 396 0
44 175 -188 0
-131 -246 398 0
-5 283 372 0
130 151 -438 0
-110 332 483 0
143 -148 221 0
50 -302 -363 0
-145 -183 288 0
66 203 300 0
96 178 232 0
-139 -275 288 0
-19 -321 409 0
-247 -358 396 0
107 -171 -435 0
-56 -212 356 0
205 265 361 0
-21 -32 -126 0
-253 283 -288 0
234 451 -468 0
30 -163 -245 0
-182 -221 332 0
132 323 -359 0
124 -210 -439 0
-46 235 -330 0
197 349 -350 0
-107 -127 205 0
-71 86 346 0
-135 -293 -475 0
-189 307 352 0
-33 -87 300 0
158 180 -317 0
-6 180 -271 0
19 -100 233 0
-80 -121 -319 0
-117 244 -365 0
-70 171 472 0
95 -354 -434 0
-61 239 283 0
32 325 331 0
-406 -438 -445 0
-186 200 302 0
-262 309 -453 0
161 -485 -488 0
-264 472 485 0
-37 -104 -435 0
-61 136 437 0
50 -56 194 0
167 216 -433 0
291 333 347 0
-84 469 -495 0
-204 437 -483 0
49 -140 -372 0
226 -254 315 0
114 -143 -480 0
24 178 -349 0
-154 255 -359 0
-35 240 272 0
123 -351 463 0
-133 -387 454 0
61 191 -328 0
14 -35 -246 0
-203 -324 -447 0
-64 -292 -354 0
-175 269 467 0
172 -245 278 0
-130 262 -483 0
111 196 -415 0
224 281 337 0
62 -342 -496 0
-14 125 354 0
-176 -388 471 0
-34 -49 98 0
-115 227 -466 0
-89 -115 313 0
-3 -32 -342 0
-132 -217 -472 0
-260 266 -275 0
15 -250 369 0
-266 -387 -411 0
29 189 498 0
101 -302 497 0
73 -176 351 0
242 310 -418 0
5 46 -414 0
193 -252 308 0
115 124 335 0
168 478 -498 0
-36 -422 -466 0
-48 260 420 0
-133 -186 -257 0
64 -257 -425 0
-93 -130 413 0
-23 -225 286 0
199 -425 -494 0
262 481 -497 0
-12 203 -418 0
-130 134 -443 0
25 -178 -423 0
230 251 283 0
119 132 300 0
-52 -262 -412 0
30 71 301 0
-448 -458 -499 0
-261 423 464 0
-163 -353 485 0
144 359 -464 0
226 414 -457 0
-105 128 -309 0
-168 -368 -427 0
-73 300 -406 0
-20 -78 -113 0
-46 157 344 0
-79 181 391 0
50 82 -321 0
-100 395 -473 0
-334 439 -461 0
-9 -323 351 0
68 -130 -238 0
-36 -198 -327 0
-180 278 -463 0
-90 -158 -228 0
39 -176 408 0
271 -353 -420 0
273 -348 -412 0
-462 473 -491 0
114 -222 272 0
-29 164 -354 0
230 247 -429 0
45 251 439 0
-208 -349 -436 0
53 369 -495 0
150 277 -329 0
-18 22 -219 0
-189 244 -393 0
46 190 339 0
-93 -225 460 0
5 -111 -492 0
-19 -88 240 0
-119 369 -465 0
60 363 425 0
67 151 -425 0
-36 -375 -457 0
55 -223 -241 0
2 138 215 0
104 -140 170 0
68 -111 -224 0
-17 283 -377 0
-110 -137 -281 0
-4 -85 101 0
78 261 -424 0
-18 108 371 0
-255 374 390 0
124 130 364 0
-77 176 274 0
-157 240 274 0
-115 -134 -343 0
-242 283 -350 0
24 202 467 0
58 -210 -345 0
-96 106 -267 0
-197 -390 414 0
79 377 -471 0
94 253 -254 0
305 312 -326 0
40 -254 263 0
352 -442 -459 0
-361 407 457 0
-122 173 266 0
96 -397 -414 0
18 103 -148 0
85 290 -400 0
119 -309 389 0
40 270 320 0
-7 339 363 0
87 -221 -257 0
150 420 430 0
-147 266 292 0
145 219 -416 0
30 -75 138 0
-344 -382 390 0
-193 -370 435 0
136 207 -428 0
-154 -156 -283 0
-186 366 -398 0
228 229 -276 0
-45 -159 -409 0
-218 -240 -300 0
9 14 441 0
150 -310 358 0
45 -181 397 0
291 -471 -495 0
125 385 448 0
-120 -303 -441 0
-16 143 -176 0
176 -262 -321 0
41 -160 303 0
-10 -103 493 0
-80 226 -375 0
230 -293 -454 0
101 201 321 0
-93 -121 267 0
-135 -252 342 0
40 -160 236 0
134 138 406 0
-231 367 -417 0
