c description: Random 3-CNF over 500 variables and 2129 clauses
c generator: CNFgen (0.9.6)
c copyright: (C) 2012-2026 Massimo Lauria <massimo.lauria@uniroma1.it>
c url: https://massimolauria.net/cnfgen
c command line: cnfgen randkcnf 3 500 2129
c
p cnf 500 2129
-156 -453 470 0
-60 -162 469 0
89 259 480 0
-171 -204 -288 0
-56 245 462 0
94 -198 263 0
187 234 -429 0
-181 186 387 0
-155 308 478 0
-103 -104 398 0
286 293 295 0
-10 -168 327 0
-242 -260 423 0
168 212 324 0
-23 433 -473 0
-95 264 -282 0
-214 274 -484 0
-28 64 -353 0
-5 308 464 0
-136 -259 447 0
-156 -436 -444 0
-56 -402 -495 0
-33 -180 -341 0
-472 489 -497 0
-258 261 -271 0
86 315 368 0
63 -96 -364 0
78 235 259 0
-81 339 -479 0
-12 119 354 0
205 416 435 0
157 -346 482 0
-71 281 -461 0
110 -141 -408 0
-56 223 -473 0
50 -66 -196 0
7 343 -373 0
20 448 493 0
149 -173 252 0
-45 150 -324 0
-13 -157 171 0
222 267 268 0
-2 218 -277 0
217 437 -457 0
22 429 500 0
-168 232 248 0
59 -123 221 0
34 265 491 0
55 68 -354 0
48 -253 -342 0
-12 141 417 0
140 -215 224 0
310 -321 364 0
-53 -88 355 0
-318 439 441 0
24 -270 -489 0
58 215 -396 0
39 -51 445 0
11 25 -50 0
13 -412 498 0
206 456 -467 0
-56 77 -496 0
379 415 448 0
5 -124 -247 0
25 -235 372 0
-233 -303 -354 0
83 189 354 0
113 -237 448 0
-16 31 -309 0
-61 -77 -236 0
146 184 -437 0
104 107 -193 0
-8 112 -284 0
288 484 -491 0
72 89 294 0
80 -111 -382 0
-24 49 465 0
-338 -389 -411 0
-68 -156 -483 0
-167 334 -370 0
-49 -188 -400 0
-99 119 384 0
88 255 -370 0
-179 -330 478 0
131 200 -462 0
342 353 -421 0
-124 301 347 0
-37 153 473 0
26 222 -296 0
89 143 351 0
-7 71 275 0
53 -156 -419 0
-178 -221 -228 0
138 336 375 0
-364 365 -367 0
57 73 -401 0
75 166 -494 0
17 216 328 0
14 272 332 0
-19 301 430 0
-24 -78 431 0
285 -299 495 0
-120 -206 361 0
401 -481 487 0
100 -205 326 0
-168 353 458 0
17 -252 470 0
256 341 439 0
394 413 460 0
144 -315 -364 0
-183 228 -451 0
10 -215 -391 0
65 -434 479 0
294 400 -409 0
-147 -254 320 0
66 278 -456 0
223 -328 -394 0
129 -175 -342 0
-255 285 306 0
-11 -131 -469 0
86 170 372 0
327 336 430 0
373 -476 480 0
-248 280 423 0
82 -271 -412 0
155 -197 447 0
-98 138 286 0
-94 247 -325 0
-83 339 -340 0
-234 372 -479 0
-6 -306 -494 0
40 350 -390 0
-111 303 436 0
154 -207 -477 0
135 215 296 0
1 360 -486 0
-101 -140 247 0
129 -183 295 0
-91 177 -221 0
-16 48 129 0
30 76 380 0
10 -56 260 0
-193 -293 306 0
89 -227 -407 0
269 349 380 0
-130 -467 -496 0
-56 73 -245 0
124 -225 -480 0
178 -356 -382 0
-23 89 -309 0
-30 -312 428 0
-28 101 -446 0
56 -171 -247 0
-262 -382 -398 0
-170 202 -213 0
-31 -167 -227 0
238 -344 496 0
-20 -57 -107 0
80 239 389 0
-37 66 108 0
246 -310 -490 0
-35 -171 -469 0
-195 395 429 0
26 118 413 0
-38 -286 381 0
-109 -455 -460 0
139 332 465 0
41 449 480 0
6 -41 425 0
291 309 380 0
30 -68 -370 0
10 -35 -162 0
60 97 418 0
-157 377 -495 0
-203 -344 -467 0
-59 -195 323 0
-231 -409 452 0
-38 90 423 0
-127 -300 -322 0
-100 -206 -210 0
73 176 -332 0
-308 331 490 0
-174 407 -435 0
119 -173 -213 0
-167 315 480 0
76 -446 -482 0
115 129 456 0
255 394 -442 0
-53 -71 -310 0
-219 -408 -451 0
116 179 384 0
-142 215 -296 0
114 238 -394 0
-138 249 323 0
-63 -333 418 0
-52 -155 -477 0
-141 -211 -237 0
332 428 486 0
-92 141 -234 0
-297 -405 478 0
-187 198 -338 0
179 252 452 0
-130 195 342 0
-19 -149 319 0
328 346 477 0
363 -440 441 0
50 -220 -433 0
-1 400 470 0
19 -35 -275 0
7 268 -320 0
-283 -347 398 0
-157 210 299 0
-349 -460 495 0
11 -16 422 0
-249 -310 -480 0
-49 124 -372 0
-194 430 475 0
-85 -162 -381 0
122 129 429 0
194 -226 -300 0
-47 276 288 0
-49 -358 -451 0
3 -257 479 0
-284 458 -484 0
65 -287 299 0
-137 -219 -226 0
-173 -287 -324 0
-46 -157 455 0
-256 297 -356 0
17 -166 314 0
-190 311 -496 0
189 -287 -316 0
179 -355 -474 0
153 -190 -399 0
-220 241 296 0
25 122 440 0
-212 -277 383 0
-109 216 -378 0
115 313 -500 0
252 -349 418 0
39 126 -253 0
232 324 -327 0
-124 -428 -460 0
-53 -180 469 0
160 340 406 0
-57 173 -348 0
154 -171 -367 0
-164 437 472 0
56 -196 313 0
-237 -247 -402 0
-23 -90 174 0
-70 -171 -435 0
337 -421 433 0
106 130 -268 0
-247 401 487 0
-297 -394 -481 0
77 -379 471 0
-84 202 -342 0
-211 276 -385 0
-22 168 482 0
-91 298 -308 0
-131 288 -431 0
-261 417 -433 0
132 -324 402 0
-166 169 436 0
-41 -201 393 0
-220 -311 -443 0
-75 -334 408 0
-110 -462 -488 0
213 -265 382 0
73 349 383 0
-28 191 -448 0
-23 -54 -331 0
-303 329 -375 0
53 309 -343 0
116 307 -467 0
-183 -224 418 0
49 60 -187 0
25 121 373 0
-48 148 -421 0
13 137 -249 0
-60 114 140 0
-261 -275 -309 0
-67 -110 124 0
57 137 -325 0
-266 324 485 0
63 290 -478 0
168 -415 466 0
37 -405 419 0
-9 -38 314 0
-91 -278 481 0
50 -113 -235 0
-403 -478 -480 0
11 -258 359 0
-32 -321 -471 0
-236 237 402 0
115 253 -414 0
-113 141 -170 0
-81 -219 -359 0
-112 213 469 0
35 -318 406 0
-60 -253 263 0
90 168 371 0
56 -72 197 0
21 -43 -492 0
-52 271 -461 0
-13 455 -463 0
209 369 -458 0
-21 365 427 0
-70 108 351 0
144 -283 484 0
235 395 487 0
1 221 -486 0
-25 -323 -366 0
-45 -167 262 0
30 50 340 0
49 -127 -212 0
-242 -418 -478 0
83 121 -489 0
-6 -83 305 0
1 17 -230 0
-178 239 415 0
122 157 -410 0
104 -228 -339 0
3 276 360 0
209 -283 373 0
90 -264 339 0
161 278 -382 0
337 408 -426 0
-159 -426 -441 0
95 164 438 0
89 223 -264 0
47 107 372 0
-231 -284 286 0
48 150 -336 0
-74 225 -475 0
148 -470 480 0
293 -435 -449 0
-7 167 -425 0
-30 42 45 0
-79 195 381 0
137 389 418 0
-160 176 -223 0
-106 248 455 0
-90 -277 408 0
16 -424 451 0
-50 204 346 0
17 -345 385 0
-199 -321 -494 0
263 -421 429 0
-188 -260 443 0
-17 30 -107 0
202 401 -427 0
-21 56 -271 0
143 -259 336 0
-39 -95 419 0
47 -73 485 0
180 -372 485 0
87 105 -179 0
60 -294 -476 0
-147 162 -280 0
81 -384 430 0
28 186 217 0
353 -480 -488 0
76 96 -422 0
-76 193 -347 0
-200 -257 -487 0
25 170 206 0
-101 -167 456 0
-170 216 459 0
39 160 348 0
-29 -232 -251 0
-29 44 -460 0
200 -378 456 0
9 117 124 0
-39 -195 -329 0
147 155 -167 0
-130 235 422 0
-21 -106 -487 0
-107 -170 -318 0
340 382 456 0
-27 285 402 0
75 263 -279 0
-4 276 493 0
-15 -225 -428 0
344 401 467 0
97 -295 -300 0
-26 -148 162 0
181 213 285 0
-72 413 423 0
82 201 252 0
164 304 -447 0
5 83 214 0
-53 272 276 0
-7 176 -468 0
100 -105 485 0
179 463 -486 0
17 108 292 0
11 61 -204 0
77 -348 -389 0
-16 -305 -334 0
265 385 421 0
-204 349 427 0
-155 -219 451 0
89 -320 365 0
6 333 372 0
-88 -119 369 0
256 -303 497 0
-183 -264 -288 0
-255 -266 477 0
59 227 326 0
-65 -119 -418 0
76 297 336 0
-114 314 489 0
-263 310 -329 0
-35 -168 323 0
-90 320 453 0
-72 241 -383 0
-8 27 -97 0
128 -344 441 0
57 -200 383 0
8 -69 314 0
136 350 481 0
217 -259 -410 0
122 -230 -322 0
41 80 258 0
-95 253 -434 0
-48 63 -308 0
-270 286 413 0
-24 373 -473 0
45 -165 -331 0
-314 341 -375 0
46 78 -313 0
-243 -272 -430 0
-98 100 188 0
-73 289 -380 0
160 314 -495 0
105 409 -423 0
366 394 438 0
104 130 -137 0
-48 -165 345 0
44 120 -334 0
-18 20 -188 0
-157 168 -461 0
157 -241 290 0
-23 -129 371 0
86 -213 465 0
-3 -285 -406 0
99 164 -478 0
157 309 432 0
82 -228 449 0
-283 -296 332 0
-173 238 -493 0
-124 -156 -473 0
5 -129 -433 0
14 148 264 0
-188 380 -386 0
1 114 -231 0
85 114 475 0
37 58 393 0
-209 223 256 0
93 -292 455 0
-75 -357 -421 0
-206 -315 -382 0
-359 363 -366 0
69 -398 -467 0
168 -282 -356 0
-43 448 454 0
42 -336 346 0
-19 69 -333 0
158 -370 -462 0
-182 346 -478 0
26 -271 280 0
-77 -247 314 0
53 -63 -323 0
28 199 330 0
-4 292 -475 0
-122 -268 419 0
-124 -147 389 0
7 -8 -499 0
152 -401 492 0
-257 -282 483 0
274 342 459 0
-332 353 464 0
-121 278 -460 0
58 -123 345 0
-10 -100 299 0
-18 422 425 0
-39 205 -268 0
-17 -255 -326 0
104 -152 167 0
-116 -144 -498 0
364 -439 490 0
176 365 372 0
186 427 -488 0
-116 150 -164 0
18 -99 172 0
-104 -258 -342 0
-20 209 282 0
27 347 383 0
138 245 -281 0
-44 -344 446 0
152 -451 -463 0
-367 416 -488 0
126 -229 -257 0
116 130 389 0
-33 -437 494 0
97 176 -416 0
53 306 -347 0
-205 229 461 0
35 126 -237 0
-161 222 -302 0
193 354 -477 0
74 -302 -401 0
-218 -308 -437 0
8 149 280 0
42 -87 423 0
-243 -328 -394 0
-73 -90 191 0
-153 -322 -370 0
-333 395 480 0
-33 164 -295 0
-178 226 283 0
-126 -180 428 0
116 376 392 0
73 -391 400 0
35 -256 440 0
-81 207 -470 0
33 -137 239 0
-190 434 494 0
-104 235 313 0
-72 -81 -125 0
91 251 -379 0
250 -296 313 0
-170 -304 494 0
194 -324 -405 0
-238 -443 488 0
-5 86 387 0
-199 -393 474 0
-59 -182 -266 0
137 318 -451 0
21 48 -63 0
233 330 376 0
76 -265 -278 0
281 288 -316 0
226 -304 -401 0
158 -159 275 0
-239 -321 -429 0
-192 -266 -367 0
-124 185 -250 0
8 27 -120 0
-51 382 413 0
-102 -191 -213 0
138 163 303 0
315 403 -466 0
-216 -354 -483 0
285 -348 -363 0
-24 71 414 0
-74 -94 206 0
123 -180 204 0
56 -205 410 0
-133 -198 235 0
39 -262 -382 0
42 -123 213 0
36 -133 -205 0
55 -208 240 0
26 208 266 0
290 330 481 0
-19 -89 -395 0
205 -316 -344 0
-229 257 384 0
137 -210 414 0
69 -225 387 0
-53 -116 133 0
57 355 366 0
-35 118 322 0
-221 264 415 0
-7 -106 142 0
156 -174 -344 0
100 229 -411 0
35 235 350 0
-265 -347 392 0
-146 -217 -303 0
365 387 467 0
-88 231 -255 0
151 -256 -392 0
310 367 439 0
95 -213 439 0
58 -409 -415 0
-289 -310 371 0
2 168 -216 0
61 -141 255 0
340 -366 -452 0
73 -283 315 0
25 -144 160 0
40 -363 -421 0
112 287 300 0
-71 -334 -354 0
271 303 -416 0
-153 285 -478 0
241 317 -437 0
-159 -226 289 0
-2 -91 -441 0
17 -338 -443 0
202 288 404 0
-362 -401 431 0
-254 384 -453 0
-240 285 -452 0
-89 274 -335 0
-122 262 -388 0
127 -359 -400 0
-16 37 57 0
-23 135 259 0
-86 -380 425 0
-38 -76 -476 0
148 184 406 0
-256 -271 373 0
-167 -290 333 0
93 -97 426 0
-22 -376 461 0
214 -240 470 0
-34 -163 456 0
-85 -303 -436 0
-82 -394 451 0
42 218 -252 0
-211 -261 -321 0
-100 325 -401 0
-223 -292 408 0
-23 -69 357 0
-344 -366 -496 0
63 163 472 0
-35 -124 418 0
-255 -306 -320 0
-61 81 385 0
50 -289 402 0
17 407 436 0
221 342 429 0
-123 219 -423 0
123 -172 200 0
-2 150 -254 0
17 -68 -224 0
-92 414 464 0
30 105 117 0
250 -283 -496 0
50 -52 -187 0
28 111 -366 0
94 196 -390 0
330 -366 458 0
187 -342 -411 0
149 300 -458 0
150 389 458 0
21 34 -196 0
-46 -133 406 0
29 358 412 0
-112 -286 -483 0
-6 156 -298 0
-23 159 383 0
39 148 -353 0
-18 -74 -422 0
112 -183 441 0
-229 -251 -390 0
-179 252 368 0
73 109 -242 0
275 468 492 0
70 149 457 0
319 -360 -407 0
-87 299 352 0
-116 140 -199 0
-117 -222 254 0
-225 -380 -485 0
144 204 -364 0
225 273 -488 0
104 426 450 0
-80 231 287 0
-12 -93 160 0
-216 -220 -358 0
-155 352 462 0
143 -214 280 0
-167 -324 446 0
179 375 -385 0
-22 130 -344 0
-174 348 489 0
-234 -363 -487 0
-157 -285 -481 0
-80 -200 356 0
73 102 314 0
164 252 489 0
-99 -122 -449 0
-273 418 -495 0
117 -245 -413 0
330 -425 445 0
72 226 271 0
-81 -246 -368 0
37 92 -369 0
-139 -248 -475 0
-18 334 -339 0
34 -140 488 0
-48 157 -427 0
16 277 -299 0
-238 263 496 0
-161 172 326 0
321 -366 -473 0
211 -292 -498 0
82 -205 -425 0
216 302 451 0
-45 -115 251 0
-218 437 491 0
-143 -237 -314 0
20 -75 319 0
-46 -265 -271 0
46 -176 -436 0
122 -234 -269 0
-101 153 480 0
-42 -120 145 0
18 -185 256 0
-167 -252 -307 0
-172 -195 222 0
-207 497 498 0
-52 -183 -281 0
192 -300 440 0
-83 112 -298 0
-41 296 -448 0
242 334 -428 0
225 -356 391 0
18 -103 -479 0
-266 -277 425 0
-13 427 448 0
-66 87 -451 0
9 -118 492 0
111 -283 -495 0
-193 -254 336 0
211 -266 395 0
-116 -120 -500 0
247 278 494 0
159 220 297 0
-107 125 -228 0
-162 338 -381 0
152 192 367 0
-57 182 206 0
38 262 276 0
73 -87 -275 0
200 -255 -264 0
-64 110 295 0
-116 -383 419 0
-75 -145 230 0
313 454 -461 0
114 200 -210 0
-104 196 429 0
-74 76 -180 0
24 221 -312 0
95 264 -434 0
161 -327 -336 0
-127 144 167 0
69 -117 371 0
-382 -390 -446 0
-103 -208 376 0
147 346 449 0
-215 276 -443 0
25 137 -291 0
181 -347 438 0
-106 111 -114 0
80 224 261 0
36 87 193 0
214 253 360 0
130 -403 460 0
-46 117 -350 0
-125 -194 -330 0
112 384 -428 0
-100 -167 469 0
424 453 -474 0
143 310 -415 0
155 -404 -435 0
-117 179 360 0
-290 425 448 0
-40 68 182 0
206 338 445 0
38 239 362 0
54 -204 -287 0
-169 -209 -266 0
134 275 -459 0
-167 217 -237 0
-11 90 -133 0
201 411 -478 0
-22 -76 376 0
-39 395 483 0
133 184 -398 0
124 -233 430 0
103 278 413 0
138 -314 320 0
132 146 220 0
-285 330 464 0
-63 236 488 0
-149 -217 -459 0
-175 251 -314 0
-188 -194 -431 0
239 303 322 0
-78 -326 366 0
134 -232 340 0
109 -132 428 0
269 290 -436 0
-81 212 -421 0
4 -27 261 0
21 171 217 0
105 -145 -194 0
121 -189 -397 0
-189 192 380 0
-106 332 -493 0
-165 285 329 0
23 -355 495 0
119 -130 -383 0
-99 -404 -469 0
-72 -324 407 0
142 148 -255 0
206 -261 392 0
-179 331 354 0
273 309 332 0
93 -311 401 0
88 -267 327 0
-341 -343 493 0
-216 329 -408 0
-11 210 -326 0
38 -152 204 0
-97 177 -437 0
-51 -200 -224 0
-2 -122 -288 0
23 -64 432 0
-157 -419 -438 0
-11 35 126 0
-156 -428 429 0
-315 -416 423 0
89 186 -413 0
-249 261 -453 0
-231 -270 470 0
-195 329 -439 0
23 101 -302 0
26 -122 -216 0
13 37 -331 0
-24 -45 132 0
-103 193 206 0
143 182 487 0
150 -420 -464 0
-438 -442 -485 0
-55 -397 -453 0
130 207 297 0
-347 396 456 0
17 -337 471 0
4 -345 493 0
261 318 -437 0
251 252 340 0
-14 -28 -263 0
-177 381 494 0
-3 251 -451 0
-148 -270 290 0
100 -248 395 0
-304 326 492 0
-45 -101 -415 0
64 323 347 0
-163 -169 422 0
-91 299 496 0
-263 310 -422 0
-44 364 -410 0
112 419 424 0
32 -323 -426 0
6 77 200 0
-9 -141 250 0
143 264 -352 0
46 -159 454 0
132 -316 340 0
-8 148 -360 0
-10 171 -292 0
-6 -204 362 0
-142 340 346 0
-154 -306 311 0
97 342 -492 0
55 -234 378 0
37 258 -424 0
-20 259 354 0
-19 -152 -289 0
-30 338 451 0
100 167 181 0
-183 230 -405 0
-117 157 -260 0
308 359 447 0
38 86 202 0
-162 -221 274 0
239 -293 342 0
-167 219 433 0
272 298 -462 0
-158 -323 326 0
-128 -348 -384 0
51 -164 484 0
144 403 -417 0
84 -153 -426 0
-67 -128 -468 0
-93 243 288 0
36 223 -457 0
181 344 433 0
-38 136 149 0
-90 230 404 0
-205 224 248 0
-129 -294 330 0
19 -38 -105 0
-34 -43 306 0
86 -121 -323 0
-297 372 485 0
151 -339 -413 0
-107 159 -500 0
-76 233 -467 0
216 -228 451 0
-39 396 -484 0
-109 361 439 0
422 -487 -497 0
95 -214 362 0
-9 120 -180 0
-200 321 408 0
262 -396 496 0
-434 459 -490 0
12 -142 -355 0
63 -279 -302 0
29 -449 487 0
-136 -256 301 0
106 186 -341 0
122 -353 -416 0
-105 -166 437 0
-196 387 500 0
-118 351 -402 0
-139 -208 377 0
190 292 -302 0
11 168 -319 0
327 328 498 0
26 -312 -492 0
87 -127 136 0
2 90 -469 0
-1 -338 466 0
254 -299 431 0
-27 -419 -473 0
-213 -351 -439 0
-274 -345 -434 0
298 -304 496 0
-49 -208 -413 0
-19 246 262 0
208 -318 -405 0
-99 -363 -406 0
-141 -347 -380 0
29 445 -463 0
34 170 315 0
-184 -261 -270 0
401 -462 -468 0
95 -220 227 0
28 -195 -367 0
-273 305 447 0
-79 101 448 0
-142 340 -387 0
27 259 286 0
119 -172 298 0
216 -251 255 0
-155 -301 -432 0
1 -240 283 0
-180 -237 -238 0
-121 285 404 0
-403 -431 -496 0
-89 180 441 0
142 -167 -300 0
41 -66 -159 0
150 -186 205 0
-47 140 -292 0
142 264 -444 0
-74 121 -365 0
-17 -121 -427 0
125 -387 462 0
-26 151 -305 0
196 304 305 0
195 -249 -252 0
35 -68 -332 0
47 365 -402 0
64 86 479 0
212 -270 304 0
413 -483 -485 0
193 490 492 0
-299 -438 -484 0
17 -57 375 0
32 262 418 0
91 -237 -292 0
-197 -295 395 0
-29 134 171 0
315 359 -371 0
135 276 382 0
115 311 357 0
272 276 -468 0
-28 89 374 0
351 -357 -368 0
-30 102 291 0
-123 -193 -313 0
49 -60 234 0
141 -324 -490 0
71 144 -215 0
6 268 -476 0
189 449 -486 0
-2 313 -404 0
-151 -192 318 0
360 -361 406 0
16 -244 -481 0
-307 386 440 0
67 -127 -370 0
-215 -252 -439 0
10 -357 454 0
77 180 -339 0
57 -456 497 0
-19 -149 430 0
-98 114 -347 0
8 -447 499 0
-81 -135 259 0
35 152 399 0
76 234 309 0
-101 399 419 0
-103 -251 -436 0
-36 271 -340 0
18 -317 477 0
-97 -334 423 0
-130 -292 326 0
-155 205 -366 0
15 -117 -233 0
210 272 409 0
207 366 466 0
-143 180 209 0
-242 244 -287 0
-101 -188 -407 0
-39 -359 469 0
-42 64 248 0
90 225 283 0
-38 267 -328 0
296 342 -401 0
-120 -270 -404 0
142 -331 400 0
208 -293 -392 0
2 400 446 0
-2 49 265 0
-16 -217 -451 0
-181 291 312 0
-41 72 477 0
-50 65 113 0
60 392 455 0
134 160 463 0
42 -125 272 0
201 -277 -284 0
248 -392 -487 0
-357 -444 449 0
-12 -403 -463 0
-204 -335 -342 0
-1 22 354 0
-251 487 -500 0
-47 370 -419 0
-157 -287 435 0
232 282 -417 0
-191 309 -314 0
279 331 339 0
-358 431 486 0
304 322 323 0
111 174 -308 0
208 322 -409 0
225 289 453 0
187 -234 -411 0
-43 -184 -340 0
-37 135 225 0
37 107 146 0
-15 94 -404 0
-114 -210 -321 0
65 -117 227 0
185 -218 -289 0
-458 -470 492 0
-13 16 -143 0
-114 328 -487 0
-15 -226 478 0
-180 -192 343 0
70 -208 483 0
18 -83 -166 0
-64 -65 -452 0
-98 -115 -235 0
-8 -59 -132 0
-93 137 -398 0
-99 -187 -432 0
84 -327 -478 0
22 26 493 0
-28 -261 -461 0
29 -60 278 0
150 199 221 0
-132 -242 277 0
48 200 264 0
-301 318 442 0
137 -269 374 0
-212 304 351 0
217 398 471 0
42 -380 387 0
-31 288 486 0
-40 -238 -361 0
-59 -143 -396 0
-45 -51 151 0
315 362 -422 0
-52 116 130 0
127 401 404 0
-122 -131 424 0
-60 -315 466 0
-13 -48 -65 0
21 -82 271 0
338 -455 491 0
126 -156 194 0
147 384 458 0
63 -235 496 0
21 22 -290 0
42 77 348 0
68 -427 495 0
61 -137 -313 0
-166 204 -257 0
-3 135 136 0
-119 142 482 0
269 -408 -435 0
-133 -184 -255 0
157 -295 -375 0
-67 -364 458 0
-13 242 -373 0
84 -319 -465 0
9 225 -336 0
17 293 455 0
-43 -115 372 0
26 -224 398 0
153 -187 336 0
64 246 -262 0
12 -255 348 0
-39 49 142 0
-12 -182 305 0
148 269 394 0
144 -276 292 0
216 387 421 0
200 -321 376 0
53 59 156 0
-251 -283 -399 0
2 155 -291 0
6 -35 368 0
88 -389 -456 0
-55 160 -468 0
-89 -141 -206 0
223 -290 346 0
-47 -53 289 0
-37 91 -429 0
-61 -177 393 0
18 -432 -441 0
49 50 -289 0
296 -418 -421 0
93 -241 287 0
4 90 323 0
154 -158 167 0
132 158 205 0
144 306 473 0
-129 -159 276 0
-2 157 187 0
-50 -232 -250 0
172 -243 -418 0
-246 306 -463 0
-76 133 467 0
-77 -146 -150 0
-129 149 -314 0
-258 -374 -494 0
70 223 372 0
-57 -186 338 0
-277 281 295 0
73 187 -446 0
382 383 -405 0
131 -188 475 0
71 -263 426 0
169 -279 353 0
223 -347 475 0
-314 -323 -467 0
94 270 -454 0
6 -161 -224 0
-94 107 243 0
-96 -141 -433 0
-182 343 -414 0
15 440 493 0
-46 218 -393 0
248 416 -429 0
9 -249 -453 0
259 297 -463 0
-57 73 -430 0
20 -66 -336 0
-11 204 -281 0
20 -69 256 0
271 291 317 0
-235 -329 -498 0
-113 153 198 0
-34 -388 427 0
-29 -181 288 0
-109 184 499 0
-225 411 -412 0
-81 -182 -277 0
256 301 -418 0
-78 -420 431 0
-42 -118 241 0
169 -399 412 0
82 233 -360 0
77 -349 -470 0
146 -399 414 0
31 -116 495 0
-47 -99 -314 0
-117 -335 -443 0
132 -188 -247 0
256 262 -383 0
-326 -431 441 0
22 -233 -410 0
24 49 86 0
58 -288 306 0
95 112 407 0
-151 320 500 0
68 306 -471 0
462 481 495 0
-173 -213 -397 0
-22 -354 -490 0
276 -289 -388 0
-208 365 -455 0
-97 128 240 0
-232 465 -477 0
-181 214 -459 0
-129 471 -490 0
-19 -149 -213 0
-119 -280 310 0
230 -355 369 0
-92 -114 461 0
-205 217 -222 0
316 -365 399 0
40 99 480 0
89 195 -361 0
-326 367 -455 0
-77 106 -336 0
224 376 401 0
209 427 448 0
-444 -457 -467 0
-25 -315 471 0
-344 368 -463 0
-226 270 -472 0
239 -325 496 0
-366 -383 474 0
-152 -216 412 0
-115 -351 -444 0
-365 -479 -486 0
176 316 -434 0
-48 -100 -115 0
276 360 438 0
-249 389 418 0
-145 277 386 0
-11 80 -88 0
-83 151 -345 0
-114 217 480 0
197 -254 -440 0
-92 336 -478 0
131 -306 -406 0
-107 -221 -313 0
-46 -229 277 0
-185 245 -344 0
-30 82 162 0
166 170 233 0
88 -154 -412 0
-39 180 493 0
116 227 478 0
-104 -415 490 0
-115 219 462 0
-325 370 -479 0
71 -169 -346 0
49 81 -190 0
-132 135 -280 0
-208 -239 464 0
-40 464 473 0
193 -277 -434 0
-109 291 -436 0
61 201 292 0
365 481 -498 0
115 -241 254 0
36 235 -250 0
268 -349 -408 0
-203 246 -274 0
-209 -265 316 0
314 -380 -426 0
-51 -255 -273 0
-73 413 477 0
-189 -327 380 0
-97 155 486 0
143 -161 -285 0
-62 135 456 0
-88 107 276 0
-62 96 303 0
-267 302 -404 0
-317 -385 466 0
-218 -271 -358 0
17 -116 135 0
-67 396 481 0
260 -311 -460 0
-135 198 -403 0
-218 400 -413 0
-248 -320 -382 0
-19 -191 -269 0
285 -293 -300 0
-51 64 108 0
219 -260 -469 0
177 -373 -460 0
-54 168 -412 0
-264 -299 -430 0
-30 267 269 0
-182 397 -447 0
-8 87 -434 0
139 373 -422 0
44 216 342 0
-49 -271 -375 0
-49 -172 465 0
6 102 -170 0
-139 -143 -172 0
151 -252 -482 0
64 -242 269 0
74 -127 -364 0
-42 -159 -484 0
131 140 344 0
46 -143 296 0
20 -87 -178 0
-126 -356 379 0
106 -283 303 0
198 206 -258 0
82 208 -400 0
64 99 436 0
-144 -393 -465 0
9 -110 499 0
-3 19 28 0
-6 311 -372 0
-323 -324 421 0
-3 71 458 0
-410 -417 -442 0
-230 -302 -365 0
212 -387 494 0
-275 -340 -477 0
210 -281 392 0
178 -266 -455 0
-25 -229 432 0
-34 371 453 0
-1 -375 -432 0
-10 304 316 0
-96 -112 -337 0
6 -30 196 0
-287 -385 -468 0
-69 -178 -335 0
-80 103 490 0
50 -306 -401 0
-287 -365 394 0
107 206 473 0
-18 -122 416 0
51 249 421 0
-242 471 -489 0
21 -79 -343 0
-300 374 -380 0
-73 -155 -385 0
-69 -345 -458 0
-7 -128 189 0
-80 -156 159 0
-184 406 -477 0
-166 184 -441 0
85 203 -230 0
-50 133 197 0
-230 468 485 0
-264 -317 424 0
-127 -276 375 0
36 272 278 0
247 344 378 0
-283 -351 -446 0
-81 498 -499 0
-16 238 -289 0
304 481 -487 0
244 -422 -492 0
-14 -135 -478 0
-145 -425 475 0
-145 -342 -385 0
-50 197 206 0
-99 246 -325 0
-397 -459 495 0
129 -451 -477 0
-166 205 305 0
-273 -307 -454 0
160 -347 -482 0
-273 386 464 0
89 -175 404 0
-286 318 -390 0
-51 -70 102 0
82 169 192 0
-89 147 355 0
79 -152 319 0
-397 398 -500 0
-31 68 412 0
-211 -362 -396 0
-47 -166 438 0
-72 303 -450 0
67 232 -366 0
-64 -423 -443 0
-32 145 196 0
-68 158 370 0
-73 -284 469 0
-98 -148 -462 0
155 -199 456 0
-84 142 -205 0
227 343 465 0
139 158 165 0
247 438 -496 0
192 -450 470 0
59 -124 152 0
-315 376 -394 0
-225 369 -433 0
21 -154 259 0
81 124 -241 0
215 338 -499 0
108 -142 486 0
-38 -200 408 0
-3 289 383 0
42 -455 -498 0
62 -153 207 0
25 -266 -413 0
193 -199 446 0
185 -317 496 0
-140 -219 -426 0
17 -212 327 0
-318 -444 -461 0
-110 -308 492 0
85 135 326 0
93 264 352 0
241 -335 -398 0
-24 -192 -495 0
139 -389 -487 0
-33 360 409 0
279 341 421 0
16 104 178 0
85 126 -398 0
-180 209 460 0
-25 395 495 0
-7 -234 491 0
24 85 -467 0
5 -422 -458 0
15 95 455 0
-25 138 498 0
-193 -286 -468 0
-435 446 -498 0
44 -72 272 0
78 -256 352 0
-42 -71 212 0
-89 225 -395 0
82 -290 438 0
104 -173 384 0
-93 -144 -249 0
-78 -380 -453 0
4 387 451 0
13 50 139 0
103 227 460 0
8 295 -350 0
171 282 -424 0
-84 -220 -349 0
-78 -201 -250 0
-35 115 243 0
-62 329 -453 0
-200 402 -480 0
168 -460 -494 0
-146 -183 198 0
56 -61 -388 0
-210 -391 -487 0
-255 -342 -483 0
48 -57 -371 0
127 266 -327 0
241 -261 -465 0
-84 169 -388 0
146 -282 414 0
150 -342 -482 0
207 -294 362 0
131 -223 243 0
16 -319 438 0
-22 -370 397 0
-397 403 -460 0
16 417 -463 0
-179 -343 389 0
-136 365 403 0
-217 -338 -453 0
78 -178 -295 0
36 -220 -265 0
82 404 487 0
6 -60 294 0
-172 -196 -390 0
306 365 389 0
101 205 -266 0
-108 -226 423 0
256 -262 268 0
418 -439 450 0
-78 296 -351 0
-118 278 432 0
-124 142 -282 0
63 286 -328 0
-61 -66 303 0
240 -344 -442 0
-312 389 475 0
21 264 -378 0
-71 202 -340 0
44 -182 500 0
54 -105 -258 0
313 455 -490 0
-54 -183 419 0
81 -258 -377 0
252 -419 479 0
54 126 139 0
-63 -220 261 0
-63 -187 -351 0
130 -159 436 0
-58 -284 499 0
-14 -172 -429 0
-64 324 356 0
107 125 -450 0
-13 -308 -350 0
176 310 462 0
-11 -115 -463 0
-279 367 -455 0
-132 146 293 0
-78 149 -249 0
-13 -172 -317 0
32 429 -459 0
-35 -109 355 0
64 75 -241 0
-26 -100 -297 0
133 188 -467 0
-129 173 350 0
-38 158 442 0
75 -126 179 0
-267 394 447 0
39 -55 329 0
-84 -129 347 0
67 -137 -479 0
203 -326 330 0
181 -387 422 0
-30 286 382 0
-84 106 250 0
-66 -154 -213 0
15 127 463 0
147 230 269 0
25 354 -498 0
-107 -216 -432 0
74 -187 -264 0
85 312 452 0
66 -148 -365 0
166 345 398 0
62 171 -371 0
-43 -133 -398 0
-274 291 445 0
-60 -87 -335 0
-71 -115 192 0
-177 293 -492 0
-107 309 -418 0
-69 304 -331 0
-172 -426 496 0
237 322 -428 0
104 386 414 0
135 381 -465 0
-36 -90 -91 0
-205 -294 349 0
-41 -53 232 0
20 -70 296 0
70 -134 -229 0
-78 309 328 0
-179 308 357 0
112 -159 444 0
-140 146 410 0
-296 329 -495 0
364 -415 429 0
108 -150 -427 0
177 309 460 0
147 262 -293 0
-113 176 433 0
-79 204 323 0
-6 407 486 0
-1 151 350 0
118 124 449 0
-317 -421 -426 0
305 315 -394 0
321 414 -457 0
-213 -443 -497 0
-15 122 326 0
-40 290 -368 0
-1 95 392 0
-20 182 -428 0
-27 -133 374 0
-302 -427 -474 0
-9 154 -224 0
-19 96 313 0
196 -395 -485 0
-66 -190 -475 0
64 -442 449 0
-346 459 473 0
-125 140 -437 0
-80 -142 -313 0
-55 227 -297 0
217 314 488 0
-129 -171 258 0
64 -161 367 0
78 -391 -488 0
-127 -451 -493 0
160 -378 447 0
1 359 -435 0
-219 -227 287 0
-187 -205 -482 0
-259 269 302 0
-213 -259 -386 0
72 -122 -421 0
271 310 499 0
-302 -308 371 0
-76 -347 -354 0
-154 283 -440 0
94 138 469 0
-302 331 385 0
-31 77 -159 0
-61 -113 223 0
-215 -346 -354 0
-44 -47 189 0
-24 32 -261 0
9 -104 183 0
137 -159 378 0
-328 428 459 0
-29 216 -425 0
48 316 -461 0
-231 240 -491 0
82 -139 -160 0
-202 -310 -335 0
-22 -197 449 0
-16 -246 365 0
-4 -11 -283 0
61 260 362 0
-81 284 -343 0
-19 431 -479 0
15 -232 -326 0
225 242 -436 0
-294 -390 -463 0
-396 -411 -437 0
132 159 -496 0
146 189 233 0
56 188 -257 0
240 -258 -404 0
-132 -211 -246 0
15 186 -362 0
-255 -468 490 0
-14 -18 340 0
-200 210 372 0
-135 -231 -368 0
-131 -236 -456 0
-309 354 466 0
92 147 -375 0
301 414 -492 0
-146 150 -258 0
233 284 -372 0
217 -218 -485 0
145 318 399 0
-23 -56 -246 0
-221 -405 -486 0
202 -280 485 0
106 -129 165 0
4 -113 -159 0
-78 -146 404 0
-42 -333 379 0
-85 323 -459 0
-98 268 -334 0
-173 -271 297 0
413 -476 477 0
-100 110 370 0
-291 -314 449 0
47 81 -338 0
206 -245 416 0
17 -90 -340 0
-263 292 -436 0
279 -281 -473 0
-149 199 240 0
177 332 -450 0
37 239 255 0
-172 240 -421 0
48 -226 276 0
-67 -138 -415 0
-9 -146 404 0
162 -315 383 0
120 -195 -238 0
-14 -434 -473 0
-15 -444 -455 0
-102 -276 340 0
205 -299 -356 0
82 125 -324 0
4 -76 474 0
-172 -243 474 0
-90 -153 248 0
-8 95 144 0
389 -403 -500 0
-89 -322 349 0
-252 255 314 0
66 -305 -398 0
-91 283 -452 0
54 -370 426 0
43 -242 475 0
-274 436 -443 0
-90 321 -363 0
78 491 494 0
-54 -434 -446 0
147 331 -380 0
38 -148 -231 0
-160 213 339 0
-175 291 -432 0
176 -190 -217 0
-43 -170 224 0
-35 -162 -387 0
52 66 -131 0
115 -159 162 0
99 180 -374 0
-184 362 -372 0
142 -199 -297 0
58 -99 128 0
-142 161 486 0
-22 -415 417 0
180 249 -437 0
151 251 -292 0
-274 -372 471 0
-196 -229 380 0
21 184 318 0
8 -38 -262 0
83 -149 471 0
-16 302 392 0
77 -118 147 0
-224 -312 -470 0
-21 -125 135 0
-43 82 -429 0
-63 -338 -439 0
-30 93 483 0
-179 203 373 0
78 148 -306 0
-260 435 -482 0
40 -90 -469 0
278 -284 -424 0
-336 -356 476 0
-96 -216 -343 0
-464 487 489 0
63 -77 -192 0
161 455 498 0
63 -104 246 0
-359 -376 377 0
-224 -283 284 0
206 -260 437 0
-205 -227 -297 0
-58 245 -382 0
162 211 212 0
-87 -133 261 0
-299 -428 491 0
33 251 -422 0
1 57 311 0
91 163 307 0
175 233 -300 0
54 -69 331 0
-13 -52 277 0
-12 -176 -239 0
127 240 -259 0
-44 -290 301 0
-48 -163 415 0
-92 -141 199 0
-124 -420 -422 0
-276 299 -336 0
-7 -82 484 0
-174 355 448 0
-83 94 497 0
110 -265 453 0
-114 -138 -435 0
-102 -278 -402 0
-49 -408 -456 0
-299 -406 -471 0
-236 -250 385 0
-241 313 354 0
22 129 154 0
-189 201 -326 0
-208 277 396 0
211 -288 -417 0
-298 -425 439 0
-110 -219 -268 0
367 -368 484 0
-18 -232 -307 0
133 -259 -359 0
102 253 -280 0
43 255 -349 0
-150 189 388 0
97 -219 274 0
82 -183 -220 0
-198 285 -400 0
-38 275 -384 0
170 308 -313 0
-206 -396 484 0
137 237 245 0
220 -241 -296 0
167 -230 442 0
15 -110 -201 0
11 -34 -250 0
64 380 384 0
-336 342 484 0
-52 -391 493 0
110 -166 -422 0
-217 228 411 0
-197 453 -489 0
141 366 378 0
-119 -175 318 0
58 -100 -349 0
391 426 -439 0
81 179 220 0
-123 -177 186 0
63 -206 305 0
112 212 -478 0
-1 205 -358 0
19 260 499 0
141 142 298 0
30 -149 -241 0
-227 305 363 0
-213 -233 -240 0
21 -50 80 0
-54 -169 360 0
-62 -114 -258 0
281 313 434 0
116 -467 483 0
-15 -196 228 0
-1 -128 469 0
-200 -306 398 0
49 293 394 0
-303 459 467 0
-4 222 -278 0
-53 -180 391 0
91 313 -381 0
-72 -97 323 0
-100 -209 331 0
11 41 -248 0
53 -139 463 0
124 238 -324 0
-280 295 342 0
59 383 -415 0
152 387 411 0
333 429 458 0
199 209 -380 0
96 -162 -500 0
-342 -388 -486 0
-235 -270 332 0
125 397 -430 0
180 293 379 0
122 331 406 0
-127 346 -485 0
26 325 -340 0
-4 -295 443 0
-60 -239 315 0
-38 -108 331 0
315 351 406 0
63 -172 -450 0
-300 -314 351 0
62 -102 -211 0
26 -80 107 0
-247 318 -435 0
86 230 -249 0
-145 -182 457 0
6 -72 -276 0
-179 -241 345 0
58 185 453 0
153 454 490 0
-113 341 455 0
291 -305 -413 0
-119 188 326 0
-109 182 205 0
-185 214 -384 0
292 468 490 0
66 -318 324 0
-275 319 487 0
-169 -328 469 0
-202 428 466 0
-35 -278 313 0
79 421 -445 0
213 -420 -491 0
-147 -297 -349 0
-2 58 -350 0
187 -243 317 0
-346 371 -432 0
-28 36 285 0
80 -123 203 0
-11 -41 138 0
-151 -154 -472 0
-30 -109 150 0
-36 -190 281 0
-150 294 -385 0
-4 140 -212 0
2 -97 289 0
5 -65 -274 0
-181 -260 370 0
-118 202 231 0
-139 -421 456 0
-161 -218 -226 0
96 -473 476 0
259 -273 -388 0
98 -183 -456 0
59 139 365 0
106 224 -239 0
-178 -218 -451 0
-214 -325 -355 0
-69 338 -457 0
59 -289 358 0
-34 259 436 0
-92 -304 -464 0
-231 -336 -348 0
-242 -265 -307 0
-163 372 -378 0
-232 248 359 0
-236 241 -418 0
-171 -185 308 0
-35 212 -241 0
-12 46 -272 0
181 -224 328 0
238 253 479 0
-180 -420 -451 0
264 290 360 0
-39 -221 229 0
-87 -130 193 0
-121 -274 410 0
-254 -280 -489 0
-182 323 439 0
-91 233 282 0
-273 -404 455 0
-222 -377 -409 0
-133 -197 -326 0
134 -333 500 0
98 -302 -376 0
70 145 -416 0
-128 -174 -314 0
-59 70 496 0
-32 -455 -479 0
47 -63 329 0
31 49 75 0
-156 207 467 0
-45 -90 423 0
-58 125 298 0
28 92 -277 0
-29 -203 457 0
-6 384 486 0
-179 255 -280 0
-82 102 257 0
38 202 -296 0
28 322 393 0
-260 -409 -477 0
30 108 -398 0
-22 32 -253 0
-150 219 -434 0
-6 -75 360 0
15 134 -146 0
-89 -183 -202 0
21 53 215 0
-140 -244 261 0
-164 -425 452 0
-251 271 284 0
-343 426 -468 0
225 -232 392 0
-277 -347 444 0
-52 254 346 0
-75 -410 431 0
-85 -197 464 0
-125 -314 -434 0
-70 251 -311 0
-250 315 -460 0
-63 306 -491 0
-122 -219 -412 0
-7 -43 -356 0
292 310 408 0
20 -144 -403 0
-74 -262 -467 0
-125 316 403 0
-76 -142 -162 0
-129 -217 -223 0
267 287 -394 0
156 340 -352 0
34 -52 -100 0
-167 386 -488 0
-134 -345 389 0
-19 41 120 0
-176 -282 305 0
83 346 484 0
-119 304 -344 0
95 -112 -360 0
-328 -345 -456 0
175 194 -426 0
-113 321 -355 0
-253 408 436 0
13 -49 207 0
-301 -358 -380 0
3 -53 377 0
137 -153 358 0
-93 -199 484 0
127 -213 -305 0
146 317 322 0
68 422 488 0
5 27 283 0
10 -374 414 0
54 -315 462 0
295 352 404 0
-31 218 243 0
75 88 -205 0
-23 179 354 0
-6 -453 488 0
74 305 -404 0
-2 371 487 0
-250 269 -431 0
-69 -160 232 0
-86 399 483 0
76 81 -213 0
22 -340 436 0
54 283 487 0
-24 46 -174 0
-224 340 432 0
-250 292 -367 0
347 -392 468 0
-296 457 -490 0
-136 -368 381 0
-25 103 -405 0
44 75 -127 0
156 309 487 0
122 -124 134 0
20 -224 362 0
133 -164 196 0
144 -458 -463 0
183 -284 301 0
-74 288 333 0
88 -183 325 0
204 261 -314 0
-252 338 -416 0
-87 383 462 0
-99 -288 -356 0
185 -254 -441 0
77 280 411 0
-86 -133 226 0
227 -421 -434 0
311 -318 -457 0
131 286 -492 0
437 472 477 0
218 404 -478 0
-30 -282 -382 0
276 -451 457 0
52 304 415 0
-154 -155 -263 0
382 404 479 0
171 360 474 0
-287 -445 -482 0
7 -328 420 0
318 -368 -388 0
-10 43 -266 0
272 364 -445 0
153 192 -200 0
4 101 -201 0
392 401 487 0
-44 -429 -477 0
-278 394 -448 0
142 369 484 0
64 142 -203 0
-262 -321 366 0
44 -72 145 0
224 265 428 0
10 20 -300 0
18 188 489 0
75 -322 346 0
29 -234 -336 0
70 214 -452 0
-185 -229 330 0
-102 -139 289 0
163 -225 292 0
165 -180 -372 0
46 -153 217 0
-215 -336 449 0
-85 300 -398 0
212 -238 -285 0
259 346 367 0
-29 218 -241 0
-10 378 475 0
107 172 -499 0
18 271 -349 0
277 472 -495 0
-73 151 -247 0
234 -438 448 0
196 -351 -439 0
-9 -114 270 0
40 71 465 0
-182 183 358 0
18 -62 -484 0
-136 161 379 0
-143 -220 288 0
85 -123 -374 0
129 -139 -386 0
5 105 479 0
112 237 280 0
-80 -129 275 0
66 168 -432 0
63 -73 147 0
94 -122 -471 0
109 158 -336 0
147 297 -476 0
-7 79 -464 0
322 -424 457 0
-353 -419 472 0
191 -291 339 0
241 245 419 0
-89 -179 209 0
-2 -336 -480 0
-137 -238 -349 0
40 -222 361 0
-146 -333 372 0
278 -282 308 0
-25 219 480 0
-28 91 453 0
168 264 -287 0
102 -150 -347 0
-343 357 -473 0
41 -148 -468 0
60 -348 390 0
-250 -384 -486 0
75 -296 -320 0
-195 -254 386 0
-245 369 -436 0
-305 321 383 0
-337 462 -468 0
-29 -40 456 0
96 255 419 0
116 -429 484 0
63 -175 411 0
29 160 369 0
-141 331 407 0
-320 -369 -480 0
-67 -376 -441 0
164 -254 -412 0
