c description: Random 3-CNF over 500 variables and 2129 clauses
c generator: CNFgen (0.9.6)
c copyright: (C) 2012-2026 Massimo Lauria <massimo.lauria@uniroma1.it>
c url: https://massimolauria.net/cnfgen
c command line: cnfgen randkcnf 3 500 2129
c
p cnf 500 2129
197 -274 -309 0
34 -203 459 0
107 -293 480 0
157 250 412 0
-118 223 352 0
186 -222 497 0
-73 285 350 0
72 427 500 0
-63 77 161 0
260 -351 410 0
-53 68 464 0
168 219 355 0
-72 127 189 0
-64 132 157 0
19 -20 -396 0
-92 -370 -427 0
326 391 469 0
281 420 -449 0
-159 -350 -366 0
-186 288 425 0
-66 361 -412 0
414 434 -450 0
69 -93 -389 0
-65 245 307 0
102 148 349 0
160 -404 467 0
100 -266 457 0
-139 -181 401 0
169 248 445 0
-58 -80 189 0
102 -431 452 0
137 -318 339 0
-49 54 -61 0
-135 -153 -345 0
-122 -141 -147 0
318 332 -412 0
-241 -442 -449 0
-18 53 -238 0
-112 232 -370 0
-299 -391 453 0
-178 381 -428 0
-110 -133 337 0
101 140 -310 0
213 -237 429 0
-197 -203 -239 0
-270 -299 424 0
-41 -201 -236 0
101 243 -476 0
-4 -7 495 0
-106 146 235 0
-148 -245 439 0
-6 -391 -411 0
-198 211 449 0
-55 182 -374 0
30 -415 -460 0
243 -390 422 0
-193 250 321 0
-77 88 -458 0
-72 133 -380 0
-123 -207 349 0
-109 176 -393 0
-127 -202 345 0
-119 -216 -289 0
-32 -198 482 0
-20 -307 480 0
178 223 317 0
-228 276 -465 0
37 -201 -375 0
149 -375 -425 0
-40 -380 445 0
-42 116 -243 0
-188 -204 373 0
45 -159 485 0
63 353 -445 0
215 283 -407 0
-97 172 -395 0
44 -168 465 0
-19 -119 382 0
-86 269 -270 0
33 304 399 0
188 275 -476 0
-251 -254 -322 0
48 -476 487 0
-100 -117 -214 0
18 259 -463 0
-33 -60 495 0
-64 -102 317 0
-198 -436 472 0
-77 285 383 0
87 -89 264 0
245 294 -361 0
-24 70 371 0
-73 -147 -373 0
48 249 267 0
-243 -391 421 0
-106 -212 -325 0
266 272 493 0
15 52 -306 0
117 293 429 0
10 64 -345 0
-4 -320 -424 0
-142 -247 460 0
117 -184 -229 0
-113 -196 424 0
74 102 175 0
6 92 -198 0
56 177 -421 0
280 324 334 0
-298 299 -490 0
194 238 -269 0
254 414 -432 0
253 -318 385 0
-2 103 288 0
-21 224 455 0
-69 207 -276 0
82 334 427 0
-240 -291 343 0
52 -255 -495 0
-42 -125 373 0
-281 -443 -489 0
-42 -146 220 0
-75 -157 441 0
286 346 -481 0
-104 -155 -181 0
398 450 -453 0
-113 203 -427 0
63 267 415 0
145 -238 421 0
90 -322 -478 0
-163 229 -268 0
-21 126 -194 0
-328 370 -478 0
-65 165 487 0
17 125 -407 0
164 261 -360 0
159 235 -486 0
63 -425 -471 0
90 -303 350 0
-174 177 -307 0
144 210 -484 0
-103 284 -364 0
144 -209 -384 0
-159 -278 -322 0
323 345 408 0
64 131 -188 0
227 339 -340 0
-10 -364 419 0
198 -270 -394 0
284 -380 -481 0
103 143 334 0
-248 376 384 0
31 138 -397 0
-79 168 280 0
-57 -89 395 0
-169 -356 358 0
161 -311 443 0
10 -170 463 0
192 273 344 0
31 51 -445 0
-64 -131 -194 0
116 251 395 0
244 -379 421 0
62 273 -463 0
68 77 -397 0
-350 -426 -436 0
240 -298 -409 0
-16 210 433 0
-36 -48 82 0
111 394 -454 0
54 336 409 0
158 -210 -387 0
-3 107 289 0
63 -76 421 0
109 -297 -307 0
115 295 -420 0
197 -407 414 0
130 -249 -498 0
310 -400 478 0
-137 -332 493 0
156 466 -497 0
-65 90 -160 0
-255 -261 -404 0
57 120 -336 0
220 -247 401 0
58 387 -427 0
-137 -182 494 0
-7 47 -200 0
15 -210 -434 0
-391 -397 -470 0
-90 -116 -154 0
157 287 442 0
268 321 -433 0
144 -293 -299 0
-53 269 369 0
-113 156 -480 0
18 231 317 0
-83 -200 -290 0
169 -297 -400 0
75 -150 387 0
-205 241 323 0
138 -348 371 0
-239 362 -462 0
-94 331 450 0
315 -469 -492 0
-112 -434 -470 0
-67 -261 420 0
306 368 -494 0
263 -266 -371 0
-191 266 -450 0
81 110 -412 0
-199 410 -471 0
73 242 362 0
163 -352 499 0
-190 336 432 0
228 -339 -397 0
110 -376 476 0
-100 -207 -477 0
240 -297 391 0
-89 -390 -449 0
-40 -210 293 0
-16 268 -366 0
1 170 205 0
48 -297 414 0
-77 158 272 0
-60 142 156 0
-109 417 498 0
-127 347 399 0
3 -303 407 0
82 -233 470 0
-160 -205 -339 0
109 -294 -372 0
-58 132 -254 0
-19 -70 232 0
-112 -249 268 0
13 215 -347 0
14 -90 405 0
-439 -445 -485 0
151 -222 -457 0
-19 -292 337 0
4 238 273 0
223 265 436 0
-185 -224 252 0
333 -410 -474 0
-298 367 -411 0
-41 162 393 0
-24 338 425 0
25 -254 439 0
56 374 455 0
439 448 481 0
120 -143 -239 0
251 262 360 0
222 231 -265 0
33 -166 -483 0
-183 235 302 0
-13 -109 -429 0
325 402 440 0
263 -485 498 0
100 196 252 0
-77 149 260 0
-3 -57 391 0
-29 159 230 0
77 -209 -487 0
140 -184 -312 0
117 180 -441 0
230 438 -465 0
-65 69 461 0
69 276 -351 0
111 165 -340 0
-7 -186 232 0
23 -314 -479 0
32 138 -435 0
123 -270 457 0
-179 378 -462 0
-26 66 342 0
-74 -123 373 0
129 149 -213 0
478 -488 -500 0
132 154 475 0
-319 -373 -393 0
-41 105 -153 0
158 209 -236 0
-26 389 390 0
167 360 -463 0
174 234 -353 0
-79 413 -440 0
-90 112 -113 0
110 -152 -176 0
-31 370 -415 0
69 -162 -436 0
120 150 -392 0
-103 -165 246 0
17 -403 492 0
-30 -162 -201 0
-175 -389 416 0
-102 -308 368 0
123 -256 -389 0
159 282 -441 0
133 -325 -378 0
117 150 -195 0
128 208 233 0
-97 -244 365 0
-10 -165 -495 0
131 -203 -302 0
339 -415 -497 0
56 -369 437 0
96 -315 495 0
-8 -298 497 0
-2 -41 56 0
-90 -119 150 0
81 -199 493 0
-29 -249 -268 0
137 288 -289 0
79 162 -337 0
-103 325 334 0
-167 203 349 0
50 -227 -414 0
76 -380 451 0
133 170 177 0
-70 -92 252 0
37 -278 387 0
-219 -235 -460 0
130 346 -464 0
137 -272 498 0
79 273 -276 0
-267 -360 402 0
-225 268 418 0
79 -228 -406 0
-64 -283 -335 0
-86 -100 337 0
-95 196 477 0
257 372 434 0
-5 -18 81 0
-198 420 -495 0
364 -373 -402 0
-72 -106 -370 0
-93 -241 -325 0
-312 355 -456 0
27 211 352 0
-36 -103 -384 0
145 -146 -440 0
-19 -332 473 0
89 144 -276 0
45 -285 -292 0
-77 -204 -375 0
180 -236 304 0
70 196 -489 0
-32 -322 -492 0
7 47 261 0
48 93 -255 0
33 -82 -496 0
177 270 -380 0
69 -220 -456 0
133 170 -421 0
-287 -453 489 0
286 301 320 0
-90 -128 -161 0
330 357 -383 0
103 186 329 0
129 -271 490 0
118 435 -451 0
-178 293 -306 0
408 428 494 0
-175 196 -370 0
383 470 486 0
127 224 -384 0
177 -257 -430 0
87 -131 -217 0
-43 45 -158 0
-172 233 464 0
-239 -299 -375 0
109 -234 -425 0
-64 -181 -387 0
-84 141 -242 0
3 285 -372 0
-34 359 363 0
-185 -266 483 0
60 -143 459 0
78 -227 -286 0
215 322 452 0
-69 392 -423 0
205 -248 -289 0
-106 199 213 0
-7 243 -472 0
196 -266 -450 0
-359 -441 456 0
38 93 385 0
31 82 433 0
-33 47 319 0
84 -454 470 0
-31 -415 499 0
-91 -141 -224 0
15 -62 -90 0
36 -64 365 0
-83 -124 305 0
-13 459 -481 0
137 -362 -415 0
137 281 -369 0
93 -131 245 0
-79 -284 315 0
-83 351 -395 0
-189 248 353 0
-99 -127 156 0
-126 -191 -496 0
-245 249 -417 0
174 281 -310 0
-58 106 118 0
-69 96 -337 0
84 -178 288 0
82 -200 221 0
-181 256 475 0
3 -26 -442 0
65 -79 -451 0
-307 -411 427 0
21 85 -220 0
11 -49 350 0
-65 231 260 0
423 -449 472 0
-4 270 -440 0
-290 406 -487 0
-277 -301 464 0
187 -218 352 0
-159 -261 427 0
-160 -219 444 0
172 -295 -468 0
-198 410 418 0
189 455 -480 0
-67 -89 241 0
53 206 -396 0
-31 35 -68 0
-136 159 444 0
42 -249 -282 0
-212 -374 -462 0
28 113 -153 0
-148 266 -268 0
181 -409 -466 0
-151 244 461 0
-70 -193 417 0
-23 -210 449 0
148 268 -357 0
13 -107 -170 0
143 -351 427 0
-11 -404 -407 0
-46 109 494 0
-82 319 426 0
-64 390 456 0
133 -157 339 0
145 -282 -331 0
-54 165 420 0
-131 -323 -378 0
-87 89 -147 0
-113 -148 293 0
-41 -264 -265 0
273 -304 -477 0
-36 -221 -324 0
-68 -95 -473 0
-96 -304 495 0
-149 -153 -455 0
-255 321 -379 0
172 -284 433 0
-178 -359 -403 0
76 249 322 0
149 193 -209 0
-123 292 360 0
-262 313 -476 0
43 -235 -391 0
166 -249 253 0
111 -265 494 0
162 298 -471 0
-54 111 -451 0
-57 -293 -405 0
53 213 -443 0
17 287 414 0
-111 -297 387 0
-40 -305 376 0
-105 -116 325 0
118 -142 333 0
26 281 -463 0
203 282 -304 0
-124 -376 419 0
7 -100 393 0
-331 -452 480 0
71 -79 361 0
-102 170 -286 0
-285 -348 411 0
140 189 417 0
50 -121 -452 0
-51 -316 -478 0
-23 -59 336 0
-160 180 -319 0
15 85 203 0
21 77 468 0
-9 142 -482 0
-35 64 277 0
-92 -369 -481 0
-228 -344 -367 0
-176 -268 -349 0
-255 -424 -442 0
85 -207 393 0
127 178 -433 0
216 -248 422 0
195 -464 472 0
-340 -343 347 0
22 375 -388 0
-16 -156 439 0
177 -356 -474 0
52 -214 -496 0
21 278 -494 0
-25 -354 -411 0
3 16 -171 0
170 -281 -354 0
11 -15 270 0
-177 240 -322 0
192 400 -430 0
32 228 -331 0
-21 62 -276 0
90 151 -347 0
77 -290 -366 0
-202 -265 -490 0
86 223 -487 0
-4 -73 248 0
-165 174 280 0
388 -409 469 0
-7 64 370 0
355 388 -499 0
195 331 -500 0
35 -179 -360 0
-83 205 250 0
-36 -106 -171 0
-345 -416 -444 0
-195 -356 436 0
95 -425 -428 0
267 -282 322 0
249 348 488 0
32 -117 202 0
176 177 -389 0
-147 -328 457 0
35 -218 421 0
389 409 -465 0
138 245 321 0
-11 79 -453 0
-63 102 393 0
-46 -262 -445 0
72 -188 255 0
253 421 462 0
-60 -221 -464 0
81 -189 413 0
-232 -393 -433 0
148 -272 311 0
-29 181 240 0
153 -412 -425 0
34 111 -464 0
-42 51 -417 0
-203 -229 306 0
-213 -367 -494 0
-162 -183 -328 0
-346 -375 416 0
-159 -262 297 0
-173 361 -468 0
12 -205 -275 0
-78 94 302 0
-72 138 -400 0
-87 96 328 0
379 452 -487 0
325 346 498 0
18 -52 -246 0
-272 -345 372 0
280 380 491 0
53 358 -434 0
73 209 476 0
-173 222 448 0
-236 298 -345 0
-68 81 -423 0
-77 79 -350 0
246 393 -453 0
76 83 -246 0
-16 232 383 0
-38 -237 467 0
20 71 351 0
57 266 -345 0
-71 -79 -119 0
-350 -381 387 0
359 363 380 0
229 -393 412 0
-61 124 301 0
-47 207 -283 0
-105 -373 -425 0
-229 -248 254 0
31 361 -493 0
108 213 340 0
129 -419 474 0
-12 -39 496 0
216 -253 -491 0
-56 -323 -424 0
-36 -124 327 0
-219 -347 -430 0
-198 -262 -420 0
359 403 -490 0
-109 228 -243 0
308 -336 433 0
-249 -381 465 0
363 378 397 0
-142 -253 317 0
-89 -102 -207 0
-16 -195 -339 0
-121 -157 203 0
-99 260 -390 0
27 179 -401 0
64 -250 -338 0
-47 -181 231 0
192 -273 -362 0
251 -342 401 0
41 -360 482 0
87 111 268 0
-15 204 -250 0
-54 -182 450 0
-73 -206 -366 0
27 -148 -464 0
-245 381 480 0
90 -143 460 0
75 322 473 0
-2 130 364 0
-123 -156 351 0
21 35 405 0
1 -82 267 0
-106 -343 -419 0
203 265 -415 0
75 220 -399 0
132 159 290 0
-250 297 404 0
-199 -205 -217 0
234 -297 328 0
-248 -387 417 0
22 286 -398 0
88 187 -188 0
61 251 373 0
55 378 -491 0
45 -286 342 0
127 -247 404 0
256 -264 307 0
-22 26 480 0
-13 151 -198 0
-126 -146 -224 0
-78 -346 474 0
171 -268 -422 0
-96 172 -346 0
-159 -202 -392 0
257 -295 449 0
78 -386 -481 0
-125 136 -382 0
67 -410 -464 0
282 -306 -498 0
16 27 454 0
-201 -407 495 0
-200 269 425 0
-149 207 464 0
-157 -218 239 0
-35 112 346 0
137 -251 270 0
24 -164 421 0
-1 -309 424 0
24 -76 458 0
159 -165 -195 0
-1 120 -332 0
-96 -315 -473 0
-276 376 471 0
-28 -36 379 0
-53 -126 237 0
-111 -256 359 0
-290 -479 500 0
-193 -260 -468 0
59 -238 452 0
175 -184 -267 0
107 222 -449 0
-89 -204 -210 0
52 -316 389 0
-203 -263 456 0
102 367 459 0
-60 -411 456 0
-36 -133 -491 0
141 -323 -396 0
-51 109 467 0
120 433 -488 0
-73 -267 414 0
272 -323 394 0
37 -92 -274 0
97 464 485 0
32 -60 -411 0
81 285 -463 0
180 -394 453 0
90 233 290 0
-143 -414 -477 0
167 200 -282 0
140 -317 -464 0
-120 337 397 0
-100 -259 499 0
-19 -147 484 0
292 461 469 0
-74 -82 -96 0
86 250 -289 0
-7 103 -159 0
-90 300 -343 0
-320 -403 -489 0
199 -233 -397 0
189 286 434 0
-196 309 -424 0
-147 374 456 0
-38 304 -466 0
-3 224 -353 0
-55 -121 473 0
-202 -268 325 0
-12 -226 -254 0
-126 320 346 0
-197 257 -370 0
-77 -344 -354 0
11 -77 -228 0
32 325 -414 0
-64 -305 459 0
242 311 -328 0
100 338 363 0
294 346 -427 0
257 360 485 0
-265 -277 298 0
-46 166 -360 0
-5 -155 -156 0
-56 107 -382 0
71 73 215 0
-20 -180 -210 0
160 -358 467 0
77 -90 -437 0
44 125 -225 0
93 -292 -362 0
119 381 423 0
4 -233 -353 0
91 -177 -460 0
-56 83 487 0
-175 181 328 0
133 -322 -388 0
127 242 -246 0
54 -163 257 0
-70 152 488 0
94 270 300 0
2 237 289 0
71 -291 -427 0
-106 238 -362 0
-228 -341 -355 0
72 -119 465 0
140 -414 -425 0
240 284 -469 0
-156 -323 -424 0
169 -311 327 0
12 -137 -277 0
-53 -113 187 0
-133 -421 -433 0
100 194 -246 0
-11 380 421 0
-234 -320 392 0
-31 -216 -271 0
143 248 332 0
37 -181 326 0
11 276 -351 0
201 -295 454 0
79 -176 288 0
86 -291 -461 0
354 424 -441 0
14 -237 -290 0
72 -90 -324 0
42 153 372 0
-83 118 489 0
-15 285 471 0
11 -182 392 0
-100 200 370 0
121 230 -375 0
223 -328 486 0
-185 278 490 0
-156 192 481 0
-7 236 410 0
84 -188 357 0
100 -419 491 0
-60 314 -343 0
-275 -285 335 0
4 52 155 0
-147 340 -353 0
-63 200 -264 0
189 389 448 0
-65 -171 497 0
69 -141 -488 0
222 -228 418 0
215 265 -341 0
36 -179 -293 0
-44 180 -236 0
124 272 -345 0
148 236 -334 0
-370 -394 477 0
-121 -181 -331 0
129 364 437 0
-97 434 -484 0
-1 -58 -200 0
106 -390 -476 0
58 198 -403 0
-159 -380 -385 0
49 193 -276 0
-21 435 -486 0
-140 -211 -490 0
-399 -420 493 0
-186 -215 365 0
147 -431 -500 0
-21 184 407 0
169 -195 -277 0
-31 -72 491 0
226 -251 267 0
-68 -124 -370 0
93 423 -472 0
55 142 -299 0
-84 -360 -390 0
-150 -166 347 0
271 -294 429 0
-102 -183 -189 0
185 239 306 0
-117 -171 -176 0
105 -129 379 0
17 -449 491 0
-218 -300 366 0
-81 -284 418 0
456 -459 463 0
-269 -413 478 0
-185 -206 -270 0
-62 -185 407 0
222 313 400 0
-207 265 -412 0
309 312 463 0
100 -153 285 0
-169 -254 -334 0
247 407 483 0
-90 223 -271 0
-162 464 496 0
-36 -147 -229 0
-6 -38 400 0
33 59 203 0
-164 252 -312 0
-112 360 -495 0
89 310 -412 0
84 86 222 0
186 -353 -355 0
-113 121 162 0
-218 -236 -285 0
133 -215 380 0
334 338 486 0
123 -197 -310 0
12 -221 -339 0
-39 -84 463 0
-34 46 -196 0
56 89 499 0
-50 187 396 0
280 -420 440 0
220 -298 -489 0
83 -178 -401 0
93 -300 -436 0
136 -238 495 0
-164 -225 -451 0
242 -388 447 0
233 -301 342 0
256 -335 436 0
-9 -25 -265 0
-288 -472 -500 0
-49 -52 -175 0
-109 233 -327 0
-260 -274 -283 0
-106 391 485 0
61 -268 -496 0
5 -81 -164 0
-44 142 -154 0
322 -481 -500 0
123 -274 -368 0
1 88 -128 0
179 -221 307 0
55 286 -494 0
-165 -225 467 0
132 180 -201 0
185 -294 313 0
-17 -61 -449 0
121 -444 462 0
76 214 217 0
1 -441 -447 0
-20 -104 347 0
-21 -336 469 0
189 210 -386 0
129 -301 477 0
-86 -135 240 0
-241 288 -335 0
-69 -98 -146 0
271 -339 -357 0
62 230 -485 0
261 -346 -436 0
-155 332 348 0
184 266 308 0
-9 -35 495 0
-31 52 -409 0
89 238 365 0
198 220 -367 0
143 -256 -469 0
-261 -310 -375 0
184 187 433 0
-345 -356 478 0
-44 45 -140 0
75 -83 231 0
49 -136 -341 0
-124 231 299 0
-239 310 -327 0
90 -355 362 0
210 -238 253 0
49 -234 -295 0
306 359 415 0
-4 -354 475 0
62 -164 412 0
1 17 221 0
210 -447 -464 0
-27 -440 -489 0
-5 -177 312 0
104 379 405 0
46 109 423 0
56 -248 -391 0
-85 -141 -317 0
-248 269 374 0
-13 -128 452 0
6 88 198 0
-33 267 279 0
79 241 349 0
-67 225 -466 0
-30 262 304 0
128 -331 -470 0
-57 -242 -383 0
-15 -68 -332 0
-85 -155 -221 0
-77 363 -450 0
200 224 -429 0
332 390 421 0
61 105 -307 0
95 105 127 0
106 230 252 0
-161 250 260 0
-183 364 461 0
313 336 443 0
-51 271 292 0
-30 202 -324 0
22 -35 -52 0
16 37 194 0
354 434 -447 0
143 276 356 0
161 376 -428 0
-66 -313 -397 0
22 287 -411 0
76 151 -268 0
31 142 181 0
-148 168 -271 0
-85 -242 447 0
138 -198 384 0
-159 297 422 0
193 290 475 0
313 -415 -452 0
-155 278 409 0
186 270 -289 0
95 -314 341 0
174 -282 -288 0
-10 -324 364 0
85 -253 285 0
-8 220 -449 0
254 -420 -498 0
33 325 383 0
-116 323 367 0
245 -331 339 0
-17 124 -252 0
-55 118 -360 0
72 -100 209 0
-4 82 88 0
-341 -393 440 0
-39 -187 -242 0
-62 160 -382 0
-161 -163 233 0
8 356 391 0
-251 -264 -416 0
228 -386 -436 0
19 -139 309 0
41 87 433 0
219 339 496 0
26 324 423 0
12 -123 345 0
18 211 -418 0
180 441 -486 0
135 -262 -263 0
54 -298 -313 0
-116 -200 202 0
28 -143 -159 0
17 160 312 0
-266 327 -384 0
-22 147 -366 0
-134 -231 346 0
110 134 -429 0
398 402 -442 0
-114 267 -461 0
-158 367 493 0
-32 78 280 0
95 380 499 0
224 320 385 0
-32 -116 417 0
-308 338 -481 0
8 359 -366 0
-160 335 497 0
183 323 434 0
-36 182 -419 0
-76 101 140 0
92 -160 -219 0
-248 286 476 0
79 -192 -336 0
-113 131 272 0
54 158 -429 0
93 270 -323 0
72 -346 385 0
109 -150 -181 0
96 113 -369 0
-34 170 301 0
-232 413 -457 0
-30 34 58 0
-131 -163 -436 0
-6 -193 -441 0
55 293 -416 0
-17 171 482 0
71 247 -337 0
-110 -340 356 0
7 -47 -90 0
-23 34 44 0
208 -213 444 0
-50 -62 386 0
-203 -316 444 0
-21 -315 -428 0
-53 -92 351 0
104 223 304 0
45 -47 -83 0
78 -115 291 0
315 -356 399 0
-118 416 477 0
100 -112 -444 0
-295 361 369 0
-30 68 -349 0
-183 -303 437 0
-31 224 284 0
-11 125 -318 0
-267 273 -305 0
-69 -158 -196 0
-99 234 250 0
114 -245 304 0
166 187 -274 0
83 204 -422 0
-39 -166 174 0
-48 302 432 0
-38 310 -469 0
154 -450 -456 0
112 187 -418 0
39 424 440 0
-115 -161 269 0
-116 -231 -452 0
3 -18 -469 0
-73 77 281 0
-107 148 -178 0
94 99 297 0
-28 139 -217 0
-70 417 -450 0
198 -267 485 0
-197 -446 -449 0
-83 351 -490 0
-228 -263 -343 0
-9 -21 -335 0
43 151 -157 0
45 -159 210 0
65 -202 -418 0
262 267 -427 0
276 -306 437 0
61 262 -387 0
-27 -451 -468 0
143 172 224 0
-166 -182 -366 0
-25 -251 -438 0
52 277 -470 0
110 316 321 0
-70 -94 404 0
36 415 458 0
-231 315 461 0
-117 324 -465 0
107 -283 -350 0
34 202 482 0
291 -304 -374 0
-25 114 158 0
329 -441 -448 0
-221 -382 -467 0
132 311 483 0
103 -119 -368 0
-277 386 -388 0
-144 166 190 0
39 -280 294 0
-165 182 -256 0
160 219 308 0
128 -391 498 0
-207 295 432 0
16 137 -494 0
30 76 335 0
-69 -301 425 0
95 170 -478 0
63 403 -432 0
186 229 -405 0
-330 412 -460 0
108 -126 444 0
196 238 -265 0
114 223 482 0
160 -165 444 0
136 -198 384 0
84 88 -424 0
-212 257 -358 0
-63 119 346 0
-383 -393 448 0
-60 -306 -410 0
-56 -97 314 0
85 274 -282 0
15 -120 340 0
156 -316 445 0
200 -377 -405 0
76 -102 -424 0
218 -273 -324 0
-278 -304 -439 0
-10 -73 311 0
-46 212 -377 0
49 79 135 0
-28 -306 341 0
-21 -263 274 0
87 -115 222 0
-180 346 385 0
124 -424 -490 0
20 -170 -344 0
35 50 -357 0
-193 -379 429 0
127 -233 415 0
326 -346 460 0
-182 -213 -293 0
-111 -379 -440 0
-14 -115 161 0
-1 -31 335 0
-6 -16 144 0
-38 94 301 0
-112 346 -414 0
-50 167 463 0
70 -214 234 0
212 -403 447 0
-281 -296 360 0
156 -188 -394 0
187 194 322 0
-21 143 -290 0
-113 164 -259 0
176 -489 -500 0
196 205 -267 0
-128 137 231 0
-148 -239 -248 0
49 86 158 0
-67 89 -386 0
105 -334 -484 0
41 -421 -457 0
-79 191 245 0
25 -286 -402 0
281 -432 -467 0
-164 -169 175 0
-132 -144 220 0
58 -117 343 0
122 -202 461 0
76 -370 498 0
61 98 -284 0
-13 224 -350 0
-81 -97 102 0
266 294 -498 0
5 -246 -404 0
38 433 -493 0
-197 -309 -383 0
182 226 254 0
-95 -165 168 0
-100 131 -252 0
-84 -378 -498 0
118 340 -472 0
-21 -208 -254 0
7 -323 -355 0
109 214 284 0
214 -263 -431 0
-349 387 -446 0
-350 472 493 0
76 372 -447 0
-19 -40 345 0
-317 -354 442 0
-408 -429 485 0
-100 -135 -321 0
209 -239 395 0
-111 -332 458 0
296 459 -470 0
95 492 496 0
34 345 367 0
-197 -294 -468 0
-54 -153 466 0
161 248 -433 0
-22 35 -449 0
-196 324 487 0
6 212 -454 0
31 417 -428 0
-109 218 334 0
329 333 475 0
63 167 363 0
216 -279 -318 0
83 244 424 0
-120 -210 396 0
-11 -52 -409 0
-125 145 -194 0
93 195 -301 0
-16 84 483 0
49 355 470 0
-174 -224 -291 0
14 73 105 0
279 317 352 0
90 188 306 0
9 116 -158 0
-36 189 363 0
-53 -273 -404 0
5 -91 -135 0
237 313 439 0
178 238 436 0
-132 193 373 0
-36 250 -487 0
21 -133 160 0
-69 183 -433 0
-55 68 -331 0
-42 -450 -480 0
180 -345 368 0
91 124 -342 0
-23 86 -219 0
83 100 479 0
155 -379 437 0
105 -199 233 0
198 -351 451 0
-63 329 -392 0
-87 164 -404 0
-141 162 -279 0
-221 294 436 0
-107 -281 -412 0
275 -315 -444 0
-46 -319 -449 0
-270 308 -410 0
187 405 -409 0
8 152 -225 0
-126 272 -490 0
207 338 -500 0
-21 -246 335 0
-78 124 292 0
41 386 454 0
-186 -192 376 0
13 104 -236 0
-27 -190 -353 0
-140 -223 252 0
-21 141 426 0
-37 -365 -474 0
332 -398 484 0
60 118 360 0
-23 -123 374 0
-327 349 443 0
100 227 -312 0
-344 -408 -426 0
-204 -326 441 0
-177 -348 432 0
-95 206 -451 0
51 147 -497 0
-158 332 413 0
-37 323 487 0
-258 -393 496 0
12 206 -263 0
-105 -211 224 0
37 -140 324 0
142 225 353 0
-60 245 -479 0
-10 112 407 0
42 -215 -225 0
247 -310 396 0
173 239 470 0
83 114 421 0
18 54 -485 0
-144 212 -475 0
-84 -119 328 0
-53 -231 268 0
293 -349 -417 0
249 -251 -495 0
75 -288 -454 0
133 -162 331 0
-392 453 -495 0
-153 -345 -420 0
284 -380 -458 0
28 -149 429 0
79 91 128 0
-83 292 -310 0
-154 -380 384 0
7 17 363 0
29 -125 473 0
57 -232 -408 0
-90 204 -277 0
-170 -434 481 0
-94 118 -357 0
-153 -263 320 0
23 -299 -394 0
-302 361 -434 0
114 161 229 0
43 -110 -421 0
-68 -167 405 0
-58 -355 -407 0
160 200 -381 0
204 -377 449 0
-335 408 427 0
144 -240 313 0
-269 -348 -396 0
-144 -229 -362 0
46 -56 -350 0
-262 389 456 0
55 -331 431 0
343 -387 394 0
61 191 -289 0
239 240 249 0
58 -76 173 0
-285 449 485 0
-96 -279 -341 0
-246 306 448 0
-3 377 -402 0
-21 190 -351 0
-139 -362 -471 0
-6 30 138 0
52 179 267 0
175 242 -489 0
8 -104 -254 0
-179 -192 238 0
-99 -132 374 0
-117 270 389 0
-6 180 -211 0
90 142 303 0
-43 -112 235 0
-106 163 372 0
319 -336 393 0
-47 162 -244 0
-79 255 -438 0
-15 -427 -487 0
65 -460 496 0
-44 -259 400 0
100 -350 353 0
-37 -240 330 0
-87 256 499 0
-58 74 -150 0
119 -311 363 0
20 21 29 0
332 379 -421 0
127 -305 -469 0
4 -383 480 0
172 250 -494 0
152 -157 392 0
72 -163 171 0
89 -394 500 0
65 -290 -357 0
255 289 439 0
304 334 -346 0
164 -291 -385 0
142 -206 402 0
-92 -201 -269 0
104 -326 -441 0
24 354 -416 0
202 -317 -478 0
11 98 -369 0
6 -154 378 0
-192 264 319 0
-90 124 -479 0
281 -434 -468 0
153 375 -402 0
-59 -303 -415 0
-405 -427 470 0
-71 -189 451 0
74 -219 -474 0
-34 214 439 0
-10 436 -482 0
55 83 284 0
94 244 295 0
23 183 409 0
4 -69 -311 0
90 240 493 0
-41 -158 272 0
-205 379 388 0
-139 154 432 0
-24 294 480 0
282 -401 -403 0
-426 -438 -446 0
-127 -128 -282 0
-27 248 -303 0
209 -360 -467 0
18 199 -219 0
-16 -20 -95 0
-22 -283 -316 0
43 381 466 0
-230 -316 -469 0
180 -207 -337 0
51 -180 -360 0
-119 345 494 0
-344 -381 391 0
-32 241 -414 0
189 419 487 0
157 258 443 0
196 -296 316 0
-81 -232 445 0
-11 145 290 0
-241 -371 -444 0
37 -97 -202 0
-270 313 404 0
229 -234 -241 0
293 357 -388 0
-124 -189 -469 0
-198 226 -500 0
110 284 336 0
36 -199 337 0
51 -125 -399 0
-130 -147 305 0
-46 332 -444 0
-49 276 -472 0
292 -308 471 0
-32 -272 -428 0
31 -195 -478 0
-94 279 -354 0
147 183 -353 0
-98 341 -413 0
12 -118 -181 0
119 320 369 0
-29 -304 -325 0
131 -199 -489 0
3 131 -350 0
121 127 377 0
98 436 449 0
-266 325 440 0
91 419 493 0
30 132 184 0
-256 -344 480 0
7 193 -423 0
223 463 -496 0
28 247 417 0
113 -354 457 0
-100 467 491 0
-324 422 426 0
-212 260 -453 0
62 -345 422 0
-206 -443 -465 0
-245 -310 348 0
-61 253 272 0
91 307 -412 0
-145 263 -371 0
189 -232 -258 0
43 -139 -198 0
-41 -85 370 0
-55 -228 -258 0
-76 -163 -350 0
-226 -357 461 0
-33 144 -179 0
-30 214 279 0
-339 425 493 0
-209 472 -482 0
327 -433 -490 0
-16 180 442 0
-30 -234 386 0
-38 174 -440 0
-52 -433 464 0
13 -200 -452 0
-66 236 467 0
-115 -184 -242 0
-13 22 212 0
-396 434 458 0
4 -261 -431 0
66 -438 483 0
288 416 -445 0
127 -273 386 0
161 -208 312 0
-174 -378 -425 0
94 385 407 0
-10 -80 361 0
103 -244 343 0
-111 330 -416 0
118 -458 -484 0
237 327 -457 0
114 -129 -213 0
258 -384 -481 0
-75 244 -331 0
53 -54 -395 0
68 -408 437 0
-49 96 -416 0
-5 320 390 0
173 318 438 0
-52 -216 -246 0
-45 402 -444 0
-60 -131 269 0
132 -242 -401 0
64 -245 352 0
61 151 240 0
15 -46 -307 0
-300 -305 458 0
-42 199 366 0
-28 340 455 0
183 270 356 0
234 -431 435 0
36 188 239 0
-169 -370 -466 0
-148 155 439 0
-128 -154 212 0
250 393 414 0
39 90 -158 0
46 63 -469 0
-65 -186 381 0
106 -132 352 0
-80 -222 308 0
-28 206 -325 0
-11 -129 -369 0
-68 -115 121 0
-96 -365 -473 0
-151 -363 -458 0
193 -249 380 0
-18 -26 -398 0
-54 66 206 0
410 -456 -481 0
240 241 370 0
-310 339 -478 0
146 -196 207 0
301 -313 -424 0
3 -11 262 0
87 -224 -265 0
-168 -205 -246 0
-54 94 -374 0
-210 -221 240 0
-19 311 -402 0
14 342 399 0
-380 400 -454 0
107 -262 465 0
27 40 -67 0
4 127 182 0
2 190 410 0
-158 168 -234 0
-135 367 388 0
384 422 473 0
232 -325 -458 0
236 -366 -370 0
75 184 -267 0
-46 -416 -445 0
286 403 -404 0
28 -301 -344 0
-116 239 -398 0
-181 -286 -453 0
-286 -394 -491 0
44 106 421 0
-249 426 489 0
184 -323 -442 0
113 -209 -484 0
78 -230 403 0
-27 -403 437 0
-276 386 458 0
-40 -268 -390 0
-12 -304 495 0
102 209 456 0
14 -131 236 0
17 434 483 0
285 -304 416 0
-144 172 358 0
225 -241 261 0
-12 -108 252 0
304 434 -480 0
270 346 -351 0
-162 -297 -331 0
311 428 447 0
143 -199 -440 0
274 -300 343 0
-286 -374 -423 0
7 -428 -444 0
123 151 481 0
208 -252 -307 0
10 151 261 0
-86 -190 381 0
281 346 -487 0
274 387 -457 0
23 -171 420 0
-259 -376 441 0
-15 148 -342 0
-212 -220 -325 0
169 -209 464 0
-27 -323 -418 0
-87 149 452 0
-218 -478 -482 0
8 -288 -497 0
34 357 -490 0
-72 -188 -391 0
144 148 -314 0
317 -436 487 0
152 -169 202 0
19 43 -54 0
181 -211 -403 0
-185 436 -486 0
-247 343 423 0
-106 250 -423 0
-176 -177 467 0
47 -75 -452 0
15 -92 423 0
-85 161 232 0
-45 -61 349 0
-49 -250 -315 0
-58 -63 141 0
-200 250 286 0
69 160 -373 0
-10 164 -225 0
136 -379 464 0
-214 -281 -326 0
1 2 174 0
-233 345 416 0
-112 423 470 0
-232 451 -485 0
152 -162 479 0
101 256 286 0
299 324 -420 0
314 -369 469 0
-7 -24 226 0
8 -124 -426 0
118 261 341 0
157 167 -221 0
137 275 384 0
84 233 -424 0
68 -144 -354 0
25 -96 224 0
-294 304 496 0
8 51 357 0
-272 356 -461 0
2 249 452 0
-105 -281 467 0
-52 183 431 0
61 -168 -297 0
55 146 442 0
171 -245 317 0
47 -488 -490 0
219 -366 -489 0
166 -364 -457 0
11 -454 -488 0
52 -460 465 0
-90 338 482 0
-173 239 -274 0
89 -151 269 0
10 -229 -310 0
-86 -273 294 0
-183 -262 -372 0
-76 -208 -465 0
99 -296 477 0
55 137 -307 0
138 361 446 0
-99 -167 441 0
-125 -291 -398 0
145 -234 -319 0
-71 -97 237 0
-35 -272 -500 0
6 132 335 0
-85 177 232 0
-18 175 434 0
-35 54 -345 0
-30 -106 188 0
-121 312 -464 0
-108 -282 -309 0
-152 -287 -473 0
6 346 -460 0
36 -353 423 0
-143 328 500 0
180 460 -465 0
-328 387 -423 0
-256 -373 -419 0
10 161 -349 0
-284 -309 -485 0
36 -250 359 0
-21 -305 -319 0
46 274 298 0
137 -145 497 0
-10 158 -178 0
-97 -370 -463 0
-114 176 325 0
377 403 435 0
126 202 252 0
-192 -246 -362 0
62 349 -491 0
75 -159 -328 0
127 -383 420 0
-28 -172 -188 0
-190 -292 -304 0
147 -399 441 0
161 475 485 0
-84 -99 -406 0
34 338 373 0
-256 292 -334 0
-51 -146 354 0
199 -219 227 0
216 224 443 0
-371 -387 464 0
-157 -279 -480 0
-281 -461 470 0
263 362 -458 0
199 -343 495 0
275 418 483 0
-11 -76 -352 0
-72 -114 429 0
242 -437 482 0
-44 123 -500 0
-208 -369 388 0
229 264 301 0
71 -329 -350 0
-36 -169 -342 0
-206 -277 320 0
-69 123 -275 0
-64 -172 320 0
-1 -274 495 0
11 -26 -81 0
147 224 437 0
168 -301 -477 0
160 -434 469 0
33 37 250 0
-159 -340 344 0
-2 46 216 0
28 271 308 0
182 -295 303 0
-4 36 145 0
-236 -437 446 0
-30 178 283 0
133 -289 -398 0
-51 313 -448 0
-170 -324 -354 0
-129 228 -421 0
101 -104 -138 0
103 194 441 0
280 341 -370 0
-22 104 492 0
-3 122 457 0
-216 425 480 0
25 162 -275 0
165 189 285 0
-86 278 279 0
-179 -202 -431 0
-13 -44 379 0
-208 309 398 0
-127 -393 -431 0
-5 53 -210 0
235 -310 479 0
245 347 413 0
238 374 474 0
192 -224 -243 0
325 444 481 0
-102 210 -433 0
397 452 462 0
52 -205 -493 0
-64 -82 -155 0
-100 252 488 0
-35 138 -500 0
-125 250 276 0
181 -381 -391 0
35 -74 272 0
-140 -199 -435 0
33 -326 354 0
-208 301 -340 0
89 318 -440 0
-184 244 -417 0
-118 223 293 0
205 -385 438 0
47 168 436 0
-271 281 -310 0
-229 331 -396 0
-130 244 469 0
-71 -246 -428 0
109 -269 408 0
102 153 208 0
-130 418 -454 0
217 444 -482 0
-187 -414 418 0
45 -296 319 0
86 -111 -184 0
195 269 -393 0
83 186 -483 0
-20 116 138 0
-143 403 458 0
-189 336 390 0
68 173 -208 0
-39 -77 -140 0
-46 -113 450 0
143 -183 -433 0
-123 138 193 0
-68 167 265 0
-121 -242 -304 0
68 -225 -470 0
85 -337 -386 0
-65 -152 -267 0
55 -125 -260 0
-68 79 480 0
36 185 472 0
-84 170 229 0
-207 -234 -316 0
121 -248 491 0
-142 -197 -473 0
23 71 -190 0
14 364 -464 0
114 -146 -480 0
254 -439 452 0
-76 178 -432 0
-173 -287 306 0
354 370 -498 0
220 -223 -347 0
-101 -210 354 0
106 290 311 0
177 -465 484 0
-60 115 458 0
-86 87 475 0
-67 212 256 0
96 137 -286 0
-226 329 419 0
57 125 414 0
-67 -86 -289 0
-25 98 -496 0
42 -111 -134 0
-12 66 90 0
-29 -210 327 0
71 330 494 0
109 -296 -495 0
153 -157 -210 0
354 439 -440 0
55 264 -443 0
46 147 260 0
66 175 -224 0
70 357 382 0
-219 294 436 0
-157 417 -434 0
-34 120 337 0
-65 151 265 0
-20 134 -186 0
186 -330 439 0
70 173 241 0
-67 -216 -377 0
-292 386 471 0
-60 369 -428 0
-40 327 -350 0
97 -134 224 0
62 -171 289 0
23 300 -312 0
9 -126 -308 0
99 -126 159 0
306 344 348 0
92 333 -364 0
33 88 -174 0
80 106 -183 0
-36 164 210 0
52 -374 -499 0
68 161 -190 0
239 264 332 0
-38 234 292 0
222 328 498 0
9 11 280 0
6 -103 139 0
-86 -121 -354 0
-202 -272 -461 0
6 19 85 0
-57 -92 286 0
-234 349 417 0
-17 -27 292 0
-112 299 308 0
109 324 -368 0
200 369 -426 0
24 -175 448 0
222 -243 370 0
-3 -172 273 0
-17 -135 -175 0
31 -221 438 0
-127 168 356 0
122 190 -215 0
91 174 -229 0
110 -150 244 0
-5 -183 -375 0
39 -351 491 0
-328 351 482 0
-289 -300 456 0
51 -57 383 0
164 -281 -324 0
263 -313 348 0
144 -254 418 0
-154 -195 229 0
-26 291 461 0
132 -350 -351 0
-146 -438 -485 0
-98 155 416 0
-114 -421 -431 0
-241 258 -303 0
265 429 -487 0
-222 313 -315 0
-6 252 414 0
-177 -286 -388 0
84 -89 423 0
-78 -102 -375 0
-180 -327 376 0
375 -384 -450 0
178 221 -474 0
-216 -231 478 0
46 -278 -476 0
-90 182 -223 0
-2 -353 -446 0
-140 -182 389 0
245 458 -481 0
38 -201 -312 0
-8 95 167 0
-123 257 363 0
176 -223 316 0
162 -165 -437 0
94 -149 -215 0
46 -209 401 0
-272 313 -379 0
14 131 -381 0
-289 -460 496 0
-327 404 476 0
-49 170 471 0
-34 -332 412 0
131 -315 499 0
97 -119 -500 0
-74 -185 494 0
-103 -168 -254 0
-342 -394 453 0
227 -439 453 0
-70 -205 -277 0
-11 282 -343 0
30 -80 -439 0
126 -283 -457 0
156 165 -197 0
38 89 470 0
9 135 398 0
-238 265 303 0
-183 -235 304 0
-417 424 492 0
-315 -426 -446 0
-46 451 -482 0
94 -285 462 0
47 177 200 0
144 346 356 0
-203 272 -297 0
-132 140 370 0
42 -108 434 0
40 274 308 0
-319 -337 -417 0
-10 -140 305 0
149 -232 -474 0
-110 235 475 0
166 -190 380 0
-26 -158 239 0
-85 -219 -438 0
233 331 -400 0
65 -170 -460 0
-61 -330 -413 0
266 -283 -474 0
-13 96 -319 0
257 -404 426 0
-97 -279 -435 0
196 261 288 0
-139 300 -419 0
288 -363 -456 0
73 198 -415 0
-19 -50 -81 0
-8 -115 -347 0
19 184 255 0
-216 222 432 0
-97 -336 389 0
-54 159 -403 0
-349 366 393 0
28 -147 343 0
-93 119 -256 0
10 39 329 0
143 -325 377 0
80 215 -222 0
108 -124 -362 0
-334 -350 -498 0
162 -206 348 0
-197 252 -328 0
-65 134 -202 0
120 -357 499 0
-57 149 -481 0
279 -317 -332 0
221 264 485 0
-220 -306 449 0
335 -355 387 0
46 365 470 0
17 -188 -227 0
146 370 392 0
-144 358 395 0
-171 -362 499 0
-181 -186 -437 0
197 -333 339 0
212 -423 -440 0
-87 100 -350 0
-75 228 -386 0
-20 459 -476 0
70 -318 -418 0
121 -394 -489 0
-71 121 320 0
67 -171 -460 0
7 -248 -389 0
-239 -252 394 0
-184 275 -478 0
317 437 483 0
-57 207 314 0
-90 -252 259 0
-138 -204 -319 0
-126 -240 480 0
181 312 -362 0
16 352 493 0
44 -366 438 0
-79 -417 -454 0
-43 -203 -389 0
85 218 222 0
141 390 -480 0
31 -162 210 0
-207 -285 -315 0
141 203 376 0
-38 325 -424 0
232 -257 -349 0
78 -80 463 0
43 348 462 0
204 236 316 0
143 -308 -435 0
255 -258 462 0
-43 -231 -287 0
143 322 404 0
175 -423 499 0
161 373 439 0
-80 120 182 0
316 435 -448 0
-18 74 -398 0
-7 -26 -393 0
145 -418 -482 0
149 -329 -414 0
476 -481 -495 0
-29 149 -150 0
21 267 -312 0
73 -264 -441 0
-305 359 -477 0
-133 -141 -338 0
-187 -188 -488 0
-11 179 -308 0
8 189 306 0
-237 315 -437 0
108 233 242 0
321 -356 435 0
-7 336 -472 0
54 -129 -186 0
-122 216 -258 0
193 -257 -315 0
-46 61 446 0
-94 -186 -345 0
-28 278 -495 0
276 334 -495 0
138 193 322 0
87 -391 -463 0
202 300 -453 0
-18 -86 -422 0
124 302 494 0
11 -329 -453 0
212 295 -489 0
74 -97 -440 0
-106 321 346 0
116 -151 342 0
87 -142 240 0
156 -375 -398 0
-85 230 479 0
-130 167 184 0
-80 -142 -426 0
428 -431 480 0
-41 -43 150 0
-167 -395 -402 0
-108 262 333 0
39 300 411 0
43 206 -224 0
-217 283 -427 0
-8 65 -417 0
-103 -289 468 0
-183 -184 298 0
-170 209 269 0
-197 -207 345 0
-168 -318 367 0
151 239 431 0
-280 313 -395 0
-3 202 434 0
-129 -377 461 0
179 368 408 0
-5 -141 405 0
-76 207 420 0
-62 -283 -306 0
114 -242 294 0
16 124 181 0
266 -287 -320 0
121 -131 -134 0
20 -67 -256 0
-170 182 467 0
230 -373 403 0
67 -405 488 0
-317 -446 -494 0
33 -216 -376 0
-51 306 -445 0
-113 -116 285 0
20 -104 386 0
-315 384 395 0
-324 -386 466 0
-28 -369 -379 0
-92 150 -231 0
138 207 -278 0
181 195 -499 0
118 -370 -484 0
22 -75 -402 0
46 -136 -354 0
277 289 487 0
56 136 -484 0
240 -296 407 0
15 -200 431 0
-30 -219 -442 0
-316 372 395 0
-116 -152 424 0
-201 320 -423 0
-105 152 243 0
-269 -289 442 0
-270 326 -406 0
112 359 -376 0
-271 -287 404 0
138 216 319 0
58 -160 -407 0
