c description: Random 3-CNF over 500 variables and 2129 clauses
c generator: CNFgen (0.9.6)
c copyright: (C) 2012-2026 Massimo Lauria <massimo.lauria@uniroma1.it>
c url: https://massimolauria.net/cnfgen
c command line: cnfgen randkcnf 3 500 2129
c
p cnf 500 2129
12 -269 496 0
147 -335 -391 0
-39 -79 -316 0
-306 -377 384 0
-391 496 497 0
58 -86 141 0
-164 -247 -362 0
32 -431 -448 0
-158 -433 -448 0
185 347 428 0
300 303 -382 0
14 35 119 0
222 272 381 0
116 -375 435 0
27 -40 356 0
139 -264 480 0
69 -210 -432 0
323 -422 -500 0
166 -243 -411 0
161 355 371 0
-1 -444 473 0
-15 284 498 0
85 93 200 0
-180 -348 -352 0
-6 235 471 0
-160 350 -414 0
168 -170 -402 0
-6 -362 491 0
-119 -332 360 0
157 275 490 0
51 -206 -344 0
152 274 -328 0
20 -124 -182 0
-61 -296 -461 0
-229 343 413 0
-19 -71 447 0
-57 353 483 0
69 109 -363 0
93 -117 275 0
63 370 375 0
-109 159 455 0
-220 281 -371 0
-17 284 -391 0
-146 306 -314 0
28 -41 488 0
-232 -258 -273 0
269 299 -409 0
-255 403 421 0
252 261 -305 0
-85 -195 436 0
-80 -96 296 0
-299 -425 474 0
35 -197 228 0
-89 -106 -411 0
-212 240 -497 0
-113 -412 465 0
-246 350 -386 0
117 120 242 0
-126 357 448 0
-20 164 -272 0
-120 -277 -290 0
-118 -406 464 0
3 286 287 0
167 290 350 0
434 -451 -485 0
97 224 -444 0
90 -138 -254 0
-6 -151 365 0
-24 -251 -402 0
274 368 487 0
91 -109 159 0
-44 -391 -416 0
33 -326 488 0
192 -234 474 0
43 -164 -272 0
-296 -348 456 0
-32 -171 -199 0
22 453 -469 0
-22 87 -278 0
129 -318 411 0
110 122 209 0
-3 -305 -324 0
154 274 -479 0
90 -135 -428 0
15 -113 338 0
-34 -57 212 0
56 116 257 0
-111 -144 -152 0
-103 472 473 0
132 -360 -371 0
67 239 335 0
197 200 -334 0
31 149 186 0
-151 -282 -287 0
-206 242 -391 0
-218 323 -451 0
49 129 409 0
-57 -87 124 0
276 -315 446 0
-38 98 150 0
-87 -197 -432 0
92 358 430 0
-157 -391 421 0
71 -284 -305 0
-114 -223 329 0
-30 113 421 0
-424 428 473 0
-139 -402 -411 0
-106 186 211 0
251 267 -292 0
144 -286 -352 0
200 -403 465 0
17 60 424 0
-204 -280 -421 0
278 -296 324 0
-29 377 457 0
-241 -247 -270 0
303 310 342 0
128 324 -424 0
177 -386 498 0
-41 -192 491 0
209 -232 -298 0
352 375 381 0
-222 -392 430 0
-142 -230 344 0
-1 69 270 0
-259 345 -399 0
-43 333 432 0
291 450 490 0
-325 360 383 0
-171 -219 -418 0
-41 192 457 0
51 65 284 0
-6 328 -379 0
-169 -350 430 0
146 -320 474 0
-62 -368 374 0
53 -241 366 0
71 -289 -397 0
-65 199 -244 0
58 -224 -327 0
140 -217 -275 0
-37 -378 450 0
-388 464 472 0
81 240 247 0
-76 -118 382 0
-63 -326 394 0
69 146 -225 0
-2 309 -483 0
-110 210 355 0
266 -335 -427 0
-145 206 409 0
193 -336 -429 0
296 -341 -404 0
56 194 210 0
-126 209 -278 0
229 431 -498 0
-39 -59 315 0
39 147 -369 0
-112 122 188 0
126 -201 -444 0
18 42 -275 0
-68 -411 453 0
93 102 -377 0
255 -316 -382 0
101 166 358 0
26 117 -473 0
-179 -304 -440 0
-77 138 -392 0
159 -264 354 0
-156 -421 471 0
7 52 -264 0
-91 323 470 0
-177 250 419 0
-196 -236 -451 0
-157 202 416 0
-209 278 -475 0
-25 -343 354 0
58 -461 488 0
-236 390 466 0
132 -392 455 0
4 -255 -437 0
63 -132 173 0
-217 -346 437 0
270 -379 -488 0
79 -164 332 0
243 -254 -277 0
-112 164 -355 0
63 141 179 0
-92 354 359 0
179 -407 414 0
110 -238 342 0
261 -393 -484 0
-254 289 -372 0
73 132 436 0
-50 -130 417 0
193 -244 472 0
-34 62 -468 0
160 -182 -245 0
-122 -180 -292 0
63 -321 -455 0
99 -367 411 0
-85 212 289 0
-137 394 -398 0
26 -215 -430 0
-59 -194 -499 0
68 136 249 0
332 405 499 0
-251 -268 270 0
-68 137 311 0
52 -286 388 0
-439 -452 455 0
156 -305 468 0
-7 -447 -482 0
206 224 -276 0
-197 -353 -492 0
-134 -234 -466 0
-28 -300 496 0
-223 233 -439 0
-5 -169 263 0
153 235 354 0
-91 -114 -208 0
227 247 396 0
-40 -113 -436 0
64 194 412 0
21 -323 -375 0
-96 -180 -335 0
-99 329 -438 0
30 44 232 0
136 212 318 0
130 -170 -459 0
-203 260 -309 0
165 -202 345 0
-71 126 469 0
216 403 -451 0
9 -234 389 0
78 89 236 0
-29 -402 -435 0
-275 -395 -435 0
47 -362 -411 0
-72 -86 -330 0
204 -404 450 0
149 -180 -233 0
233 -264 -432 0
167 424 475 0
-100 120 370 0
182 317 403 0
-79 224 -355 0
-61 135 -436 0
49 -254 -322 0
-3 -92 -320 0
-141 442 -476 0
-12 -180 -189 0
28 212 -243 0
-145 194 235 0
-43 -164 -207 0
-48 -289 -335 0
-77 328 -382 0
142 221 -376 0
337 -438 484 0
145 -160 477 0
-218 452 490 0
-115 322 364 0
-95 106 347 0
267 287 381 0
-195 212 -410 0
5 398 -452 0
-37 -202 -254 0
-215 253 -275 0
-87 181 -317 0
440 -474 -494 0
13 138 249 0
-97 -172 270 0
-197 -351 -395 0
155 -286 -344 0
272 351 489 0
-104 227 -468 0
-76 351 451 0
157 419 493 0
-33 -54 -408 0
-18 -154 445 0
4 -62 -447 0
-116 -187 402 0
212 -260 -348 0
190 -215 457 0
168 375 -490 0
-16 -270 -275 0
61 -240 393 0
-108 192 225 0
-271 -328 334 0
-205 388 -420 0
-131 -187 -415 0
22 113 -114 0
30 -336 -340 0
-43 -131 -486 0
-85 -331 -424 0
422 450 -459 0
133 -399 425 0
145 275 339 0
-15 -143 -321 0
181 -296 466 0
-148 209 253 0
56 78 421 0
-84 -118 -428 0
134 160 -345 0
74 229 -493 0
27 -106 -397 0
144 -150 373 0
20 204 237 0
-117 229 447 0
-417 -435 457 0
119 316 -478 0
280 299 -439 0
-238 254 -480 0
-68 243 -301 0
53 134 -488 0
-64 -99 359 0
-79 285 -318 0
-203 -291 491 0
33 -323 454 0
-36 286 -489 0
-68 -216 239 0
-23 327 386 0
79 250 -403 0
-66 186 230 0
-51 -161 -165 0
-158 -302 385 0
281 -325 -403 0
15 -48 280 0
312 -356 391 0
22 -148 -476 0
-191 259 -497 0
287 -351 -428 0
141 298 467 0
90 -344 -486 0
235 -352 451 0
-99 142 260 0
350 431 -453 0
337 -447 -471 0
-13 -132 426 0
24 201 -279 0
-286 -410 -416 0
-89 229 231 0
-107 -203 204 0
4 344 -360 0
62 181 253 0
-92 -299 -401 0
37 423 475 0
-103 -173 339 0
187 -316 409 0
-9 -45 -222 0
156 -292 -472 0
-55 -307 -319 0
-7 291 299 0
-80 -325 -457 0
-40 -94 109 0
139 304 394 0
40 94 -150 0
-11 282 364 0
-40 386 -394 0
-311 -448 479 0
-59 125 -252 0
-249 -251 321 0
-232 275 -338 0
-129 286 443 0
-168 -176 413 0
154 445 469 0
130 343 -491 0
117 301 -322 0
-100 107 -305 0
-16 -363 437 0
-46 -85 186 0
-14 -208 482 0
-117 -122 461 0
-10 -309 402 0
292 315 -469 0
-129 132 -225 0
-49 -284 -421 0
-167 259 306 0
58 73 315 0
210 267 -307 0
-78 138 -394 0
376 -444 486 0
283 309 -416 0
-32 101 470 0
26 -125 -314 0
-2 416 -452 0
-79 -256 -331 0
242 -298 -429 0
108 -261 -321 0
-181 -273 399 0
140 -147 -400 0
-150 181 319 0
219 256 441 0
-163 274 -485 0
57 -127 469 0
93 -300 -466 0
282 353 397 0
-209 -219 472 0
-420 -448 -477 0
59 -97 -437 0
67 130 -206 0
6 323 471 0
-60 272 500 0
263 -333 409 0
-126 158 241 0
-119 279 288 0
5 -175 -292 0
-73 -181 -401 0
-172 315 -460 0
13 -64 393 0
-283 417 437 0
22 97 487 0
117 -142 287 0
-302 444 467 0
-250 381 435 0
-51 134 -491 0
81 -82 86 0
-215 -217 -414 0
208 -248 453 0
116 -358 366 0
-94 -221 -332 0
-107 150 431 0
192 255 328 0
63 127 -196 0
78 -98 -142 0
-8 60 -63 0
256 -381 382 0
136 358 -381 0
25 31 -179 0
146 186 253 0
93 -127 -140 0
73 -182 215 0
148 257 309 0
149 167 -237 0
-202 228 -457 0
214 -323 -402 0
-207 432 442 0
-276 -325 410 0
81 243 280 0
105 -116 469 0
-106 471 481 0
143 -309 468 0
-55 318 358 0
-75 -243 262 0
-5 -73 -429 0
279 -327 369 0
-21 -247 492 0
-177 289 -407 0
131 325 500 0
122 -241 254 0
187 271 384 0
-355 393 -456 0
105 -116 -450 0
-79 212 435 0
334 -337 380 0
198 294 -493 0
-45 173 286 0
-286 341 465 0
7 38 310 0
-62 -79 -216 0
197 333 -446 0
-208 -345 381 0
176 270 398 0
76 293 -300 0
180 284 484 0
-28 431 480 0
-237 -268 -307 0
238 -375 477 0
138 200 329 0
-192 -240 -307 0
169 -269 435 0
23 150 242 0
41 123 342 0
261 268 496 0
-1 19 -44 0
158 389 -396 0
-9 -228 -499 0
-76 144 -346 0
229 243 468 0
24 -43 261 0
-92 -207 275 0
181 208 299 0
146 -236 349 0
69 -136 366 0
-97 406 421 0
128 -209 -451 0
-270 -369 -398 0
-334 336 497 0
59 -118 -353 0
106 -279 440 0
-40 -113 156 0
14 131 375 0
53 -394 468 0
119 302 362 0
-77 -120 342 0
128 -367 -468 0
-37 288 -416 0
186 229 483 0
-179 -289 -357 0
-115 133 -313 0
-64 119 346 0
-240 -432 465 0
-113 -119 -392 0
-206 -238 384 0
50 284 350 0
-88 -318 480 0
-118 -383 -443 0
342 381 -390 0
128 335 427 0
-45 124 -298 0
74 -218 -281 0
38 125 414 0
425 463 -484 0
-187 258 314 0
55 86 323 0
-24 -338 -405 0
55 -332 427 0
-35 129 389 0
104 173 -339 0
44 -253 -328 0
98 -282 385 0
22 218 473 0
30 66 -479 0
27 -308 397 0
-42 -112 447 0
149 -224 318 0
104 -276 425 0
147 237 397 0
-211 366 472 0
98 174 481 0
131 142 -295 0
-34 139 -390 0
-208 325 -390 0
-194 218 -413 0
53 80 274 0
-172 -278 -488 0
-262 -269 -348 0
235 -439 482 0
-149 -156 255 0
170 -234 249 0
-133 198 496 0
164 -327 448 0
-224 248 -337 0
-89 -202 284 0
-47 195 326 0
-83 -103 247 0
25 367 -476 0
49 346 -348 0
74 472 479 0
-57 340 -498 0
-159 -198 -362 0
163 -287 394 0
-89 -102 360 0
109 -229 -401 0
-17 -260 282 0
228 -268 -480 0
83 -109 -454 0
-231 -291 424 0
235 268 340 0
-66 -247 -337 0
19 351 386 0
-62 66 -399 0
-29 42 -106 0
-185 243 370 0
-247 310 -426 0
100 -153 -317 0
-54 88 382 0
-33 -92 -383 0
-292 -375 468 0
-30 255 -277 0
198 320 -393 0
-75 -163 491 0
41 -71 -149 0
-77 -130 400 0
177 -309 -449 0
261 -418 -443 0
-65 66 97 0
-184 -217 -418 0
-22 145 217 0
-183 -324 -444 0
399 -464 491 0
-320 -341 -453 0
205 247 359 0
-90 -131 -372 0
28 276 315 0
83 209 -390 0
-304 332 456 0
-94 -376 -402 0
-117 142 -301 0
-69 -340 -449 0
179 331 339 0
-125 142 -366 0
-178 -462 474 0
-295 417 -443 0
42 359 496 0
-185 -396 490 0
300 314 -332 0
140 287 -359 0
328 402 -407 0
10 -55 439 0
100 -123 -156 0
-15 -147 -372 0
198 -200 368 0
314 -345 392 0
-152 -335 478 0
-49 -182 197 0
-160 170 376 0
-128 260 335 0
-71 296 -358 0
-161 311 -361 0
-21 75 161 0
-215 332 -475 0
29 244 -402 0
-8 -25 296 0
-43 -244 -494 0
161 -242 -359 0
10 -410 -460 0
-42 224 -423 0
7 340 -394 0
-209 -309 312 0
29 216 389 0
234 -318 394 0
307 -336 488 0
333 423 -476 0
50 289 -472 0
-219 263 -482 0
188 -263 -440 0
-15 -174 -230 0
32 -116 -365 0
167 -185 199 0
134 -407 -473 0
143 -311 -448 0
76 -219 478 0
-159 -232 -347 0
-48 354 377 0
-31 462 466 0
-223 495 498 0
26 -118 -445 0
134 -207 236 0
-31 105 -337 0
-159 -215 373 0
-163 207 -370 0
-13 -367 -380 0
-150 276 -404 0
13 194 201 0
-57 232 331 0
136 156 -185 0
128 228 448 0
-252 403 -473 0
-179 -180 204 0
-85 117 269 0
113 292 -389 0
-240 461 469 0
-208 -320 422 0
88 241 403 0
143 310 348 0
-126 -280 -319 0
-139 -369 486 0
202 -206 -284 0
60 -216 424 0
-37 329 388 0
-225 232 434 0
64 -155 230 0
213 -221 367 0
183 190 244 0
-39 -209 -282 0
-219 -306 -472 0
-20 48 -142 0
-96 271 411 0
-128 279 312 0
31 -67 -116 0
20 -185 491 0
151 240 339 0
-296 -343 492 0
-75 212 315 0
174 246 485 0
2 -192 403 0
-188 242 -439 0
305 -314 -452 0
252 -355 -442 0
64 147 -411 0
103 212 228 0
-314 -342 466 0
345 367 477 0
-74 -217 -233 0
30 -124 298 0
-109 134 136 0
-65 -106 -187 0
125 -411 -491 0
-49 -426 -462 0
11 239 -499 0
65 172 -453 0
-61 362 444 0
-92 -190 294 0
-22 95 340 0
150 283 341 0
-137 223 -355 0
-2 106 -488 0
75 157 -455 0
-176 232 -479 0
61 136 -495 0
42 244 337 0
-47 53 -425 0
-79 299 -338 0
-79 349 -472 0
29 -41 -458 0
-202 388 -394 0
-111 247 373 0
78 187 338 0
150 -295 -491 0
154 -449 -478 0
-215 389 -415 0
-90 -266 338 0
-55 119 171 0
-210 -304 398 0
396 -443 -449 0
-151 -189 -380 0
-143 242 388 0
191 290 -303 0
109 -264 416 0
-369 429 -480 0
-82 186 -305 0
220 266 306 0
60 165 197 0
-173 292 396 0
-123 212 -306 0
-328 -415 -458 0
-48 346 454 0
-24 152 352 0
-64 -344 -463 0
267 -428 -456 0
-24 -63 -420 0
80 -162 188 0
31 87 361 0
103 326 -394 0
-9 227 -409 0
-57 206 -359 0
193 -217 260 0
143 173 -434 0
55 -132 -331 0
101 211 -353 0
-39 272 -432 0
281 -311 -415 0
-26 -396 -486 0
-47 67 271 0
93 363 412 0
63 235 -391 0
179 325 449 0
38 57 169 0
-215 -320 -420 0
15 23 -51 0
53 -319 -396 0
107 155 -179 0
-90 -91 298 0
66 -213 250 0
-339 452 492 0
286 356 -368 0
27 -34 -271 0
215 333 -469 0
-414 -415 -484 0
55 105 -280 0
-1 35 -196 0
31 320 328 0
-17 271 427 0
-256 271 -350 0
-82 -98 450 0
164 204 427 0
-59 80 -351 0
-314 329 468 0
-112 204 283 0
24 326 -426 0
91 224 -326 0
41 -221 288 0
240 -353 -414 0
118 -217 448 0
-90 289 392 0
-136 461 -493 0
44 -479 482 0
-106 359 412 0
391 443 490 0
-154 -186 260 0
-163 -300 387 0
56 220 344 0
-80 -247 -298 0
-69 79 433 0
-152 239 -493 0
-99 332 -463 0
-68 104 314 0
-75 -149 202 0
-21 209 433 0
94 -100 416 0
15 240 -322 0
245 -256 -441 0
90 -319 327 0
347 -413 435 0
78 -260 -455 0
-254 -430 -492 0
-149 185 302 0
365 423 -482 0
-126 332 390 0
-387 -468 471 0
83 213 -303 0
28 337 477 0
247 -275 406 0
205 -451 458 0
-29 -95 -148 0
-50 80 141 0
205 340 -500 0
-218 -232 -467 0
420 -433 -464 0
120 -307 -446 0
229 319 434 0
-84 -211 353 0
-33 -81 196 0
-86 -112 322 0
216 477 -496 0
153 186 262 0
97 105 143 0
-98 155 408 0
37 -319 -358 0
91 -282 457 0
-114 -142 482 0
207 -233 -346 0
-97 -146 -258 0
164 -288 447 0
218 247 281 0
203 341 458 0
147 -407 -490 0
-12 399 -442 0
34 62 -433 0
-129 315 326 0
-62 -355 -394 0
37 -138 261 0
-27 160 252 0
-72 212 -455 0
-208 316 388 0
-53 -246 -483 0
333 362 -374 0
120 -170 281 0
-193 309 -433 0
113 -199 -283 0
28 213 -426 0
-158 314 -318 0
275 -313 -373 0
150 286 -363 0
34 -77 -363 0
-52 -313 -454 0
264 334 487 0
-136 -197 496 0
97 -174 491 0
71 -318 444 0
-278 -338 -489 0
187 390 -453 0
-125 -214 -384 0
-149 -170 308 0
224 -329 -499 0
85 -160 -328 0
-107 234 -368 0
86 -265 -313 0
-97 -148 338 0
-36 -51 -324 0
191 249 413 0
19 -324 495 0
-85 89 -355 0
-321 336 469 0
-27 -414 454 0
-130 149 437 0
171 -375 439 0
191 359 443 0
127 136 153 0
45 260 471 0
-54 154 332 0
-70 -234 -470 0
108 161 267 0
-100 -226 258 0
-180 218 -221 0
2 -17 -418 0
81 -379 -463 0
-333 391 479 0
-274 421 437 0
-31 284 -311 0
328 400 -447 0
-156 171 -483 0
-32 77 422 0
-348 -349 488 0
-92 256 -433 0
-59 356 459 0
90 127 319 0
77 110 -487 0
1 35 -410 0
-168 -395 -413 0
8 408 -480 0
78 -126 -268 0
138 -300 421 0
71 -309 353 0
-17 161 -192 0
109 -133 -256 0
-46 179 -316 0
33 133 -472 0
-106 -402 422 0
-4 -213 -344 0
-25 97 -396 0
-93 -114 275 0
78 137 -150 0
-272 365 -425 0
-155 220 -315 0
-57 175 391 0
-36 203 -210 0
-325 337 -370 0
-56 -357 401 0
77 189 381 0
161 323 -444 0
-121 -258 -364 0
-336 344 -485 0
-37 -214 354 0
-454 -492 -493 0
-106 384 423 0
88 162 -441 0
38 -449 -469 0
-160 183 421 0
-211 -271 392 0
178 319 439 0
-10 168 -254 0
-160 359 378 0
110 394 436 0
229 364 -410 0
-112 123 -485 0
-89 306 451 0
-154 395 452 0
21 -75 -337 0
-37 399 -488 0
-388 -438 451 0
-165 394 469 0
173 -324 476 0
-240 271 286 0
298 -432 -435 0
126 335 421 0
55 67 103 0
11 34 -294 0
289 395 -412 0
144 338 -493 0
-190 -216 321 0
57 -283 -400 0
26 -73 -298 0
239 284 353 0
84 -143 -308 0
271 413 483 0
-122 -332 -452 0
137 -283 -331 0
126 149 -252 0
-26 -441 445 0
-168 171 203 0
-50 255 419 0
-39 185 424 0
57 -130 -251 0
4 154 399 0
-233 265 -403 0
100 -181 465 0
-124 -351 -361 0
-119 -182 317 0
316 -323 -434 0
149 443 462 0
-83 -148 350 0
-224 272 391 0
-45 175 221 0
-48 -222 343 0
80 404 422 0
-45 -240 447 0
42 -293 -484 0
99 -313 322 0
83 -256 370 0
-279 -376 479 0
-326 399 -446 0
-53 -169 261 0
-163 -185 455 0
-1 -90 132 0
-119 316 499 0
-52 -246 419 0
-167 -297 320 0
-160 184 -342 0
199 -268 300 0
113 356 453 0
309 -323 -463 0
-26 125 326 0
143 247 -342 0
-23 -443 -465 0
10 234 415 0
-16 56 360 0
52 -285 -291 0
-265 332 -465 0
-91 114 -139 0
-63 100 342 0
89 408 -458 0
-94 128 190 0
275 280 -367 0
80 -325 411 0
132 274 -439 0
-28 -445 -488 0
-26 -214 -259 0
211 -215 406 0
-12 -66 493 0
54 -123 -433 0
74 249 266 0
-113 201 -248 0
-161 219 436 0
281 387 413 0
-38 330 368 0
10 28 110 0
-326 -331 424 0
31 250 -425 0
5 -86 450 0
119 -205 -411 0
-195 -396 -432 0
-79 -423 -484 0
140 -182 450 0
-174 -425 -451 0
124 148 278 0
-396 414 438 0
26 -45 -56 0
125 395 -435 0
103 219 -241 0
9 -399 -449 0
-37 170 429 0
-52 164 270 0
-6 -158 279 0
21 44 -216 0
-71 274 381 0
213 241 -358 0
167 332 -483 0
81 360 441 0
143 353 369 0
-180 350 475 0
2 157 -239 0
-28 200 -419 0
43 438 472 0
-168 450 496 0
62 153 457 0
109 -232 291 0
30 94 -315 0
-241 -343 405 0
65 413 -449 0
-160 -410 -454 0
-70 148 299 0
-7 -321 -395 0
52 -252 -374 0
-143 -252 273 0
224 -307 400 0
-270 349 -491 0
-240 420 481 0
63 72 -346 0
-10 -224 -460 0
-241 357 -498 0
125 -195 -431 0
-26 -369 385 0
-335 470 -473 0
-61 -68 -319 0
-315 354 355 0
310 427 453 0
64 309 476 0
181 452 457 0
-163 213 313 0
-50 -72 -77 0
135 -178 495 0
9 37 94 0
-267 -336 413 0
-82 -204 -434 0
68 280 -375 0
44 -101 311 0
20 46 236 0
-104 -247 434 0
-60 -150 -302 0
-85 372 -416 0
-174 -293 -365 0
-147 165 -423 0
-8 152 -350 0
-186 -276 468 0
-84 456 480 0
-9 -195 -485 0
-33 83 -351 0
419 452 492 0
52 402 435 0
38 -426 488 0
405 -411 442 0
213 378 -443 0
-175 272 445 0
234 278 341 0
55 396 -411 0
-49 -117 458 0
313 -325 -364 0
-191 208 -246 0
64 399 -424 0
-159 -280 307 0
329 -411 -463 0
-313 -407 -449 0
95 270 446 0
232 -255 -462 0
27 -62 -100 0
13 334 -380 0
-97 -293 351 0
-223 -231 347 0
60 97 240 0
74 -115 -240 0
-284 -393 409 0
-160 274 -443 0
102 317 402 0
110 -344 368 0
37 188 -472 0
97 189 233 0
126 138 -384 0
52 81 -460 0
-176 252 -295 0
41 228 -302 0
-40 -404 484 0
46 -140 195 0
-212 -349 -437 0
106 180 444 0
183 401 423 0
36 114 476 0
11 -171 -181 0
19 -143 -246 0
85 -88 -132 0
-113 -134 -449 0
-421 -477 493 0
-1 142 -337 0
85 372 464 0
185 -269 276 0
-10 -199 300 0
293 359 402 0
19 -415 -454 0
-41 311 -488 0
177 -298 433 0
-63 336 -370 0
117 -187 -342 0
-65 -111 -218 0
-120 -264 323 0
28 -412 -451 0
58 -257 348 0
-90 112 268 0
440 -462 485 0
-193 -323 -417 0
413 456 -488 0
-174 -205 -226 0
-144 158 342 0
88 373 -382 0
149 226 -356 0
128 424 438 0
69 204 -451 0
-62 353 -473 0
-468 474 -494 0
181 236 -336 0
-230 -310 428 0
37 104 282 0
135 208 406 0
-39 -45 -83 0
-52 -248 416 0
-133 -237 317 0
140 199 302 0
-96 289 -407 0
-92 260 -466 0
293 -326 -494 0
215 -246 468 0
8 -226 -492 0
-288 -295 -496 0
-54 89 103 0
111 -359 364 0
137 -147 -307 0
-197 298 -476 0
-94 307 410 0
285 -411 -435 0
182 311 -493 0
163 -366 -390 0
2 -76 288 0
270 413 434 0
198 303 345 0
-26 389 477 0
61 -116 -370 0
-308 -314 454 0
-54 -252 -368 0
-91 410 -420 0
-71 -339 397 0
164 -228 383 0
-12 160 -380 0
84 454 -472 0
-40 97 383 0
15 153 211 0
-184 395 469 0
-27 51 368 0
-389 416 459 0
94 -275 283 0
-118 265 374 0
286 366 445 0
251 310 -443 0
29 58 202 0
-18 -34 61 0
8 72 -183 0
-13 316 -468 0
68 370 -397 0
7 -13 97 0
-57 347 -404 0
-192 204 366 0
26 -81 124 0
-38 -346 -437 0
-34 -115 243 0
82 -117 157 0
56 -177 -331 0
36 -146 274 0
-245 431 457 0
49 250 -287 0
195 205 -323 0
-145 -168 214 0
-22 150 282 0
57 -325 458 0
18 -419 453 0
-39 -374 -472 0
87 122 -309 0
324 -385 -476 0
369 396 -400 0
-36 -171 241 0
173 184 -362 0
147 -320 -467 0
97 125 405 0
87 251 -349 0
-18 374 -478 0
-268 -290 -431 0
-72 198 212 0
-161 221 478 0
-76 -86 323 0
360 -422 478 0
-29 397 443 0
168 -201 452 0
-136 -248 402 0
-223 -374 376 0
-78 217 230 0
-174 265 415 0
175 268 -384 0
64 113 -222 0
-136 371 -453 0
-140 312 -424 0
-39 -356 -359 0
-209 -424 -454 0
-51 52 -285 0
159 -347 355 0
-45 -268 -480 0
43 335 -432 0
-63 70 -91 0
-184 -455 -496 0
16 288 393 0
-96 286 398 0
-234 345 386 0
-119 258 278 0
-132 -178 -331 0
-213 -290 449 0
-120 170 384 0
-87 237 417 0
128 -283 -291 0
-23 204 423 0
2 6 186 0
135 -204 287 0
-31 -292 -424 0
-220 343 -405 0
-68 -87 -199 0
131 -350 437 0
73 110 -418 0
-33 116 120 0
-103 349 417 0
-56 -58 400 0
-156 309 -491 0
56 472 -481 0
116 -119 -421 0
121 135 -340 0
-16 367 439 0
-40 66 -348 0
99 -157 301 0
-171 273 -340 0
233 326 -496 0
-20 -229 485 0
9 -10 -89 0
191 374 460 0
189 238 363 0
292 424 437 0
-422 471 481 0
16 -219 360 0
191 220 459 0
91 344 -347 0
95 230 403 0
17 -276 491 0
-393 394 -454 0
21 184 -238 0
65 198 -459 0
65 213 388 0
-30 409 -416 0
15 124 376 0
-124 -214 -369 0
-63 129 -316 0
136 176 349 0
106 233 -349 0
-356 390 462 0
-274 -301 -402 0
20 378 -391 0
320 -341 -494 0
124 138 -361 0
-132 -440 -444 0
154 -159 -197 0
-23 122 197 0
-248 -358 454 0
-5 -360 -371 0
-60 65 229 0
201 334 -433 0
259 -354 -365 0
70 -99 -255 0
86 123 -195 0
328 -432 436 0
139 -168 332 0
194 236 351 0
-101 -315 373 0
-67 -195 -488 0
-258 338 -476 0
10 77 -326 0
219 -273 421 0
88 228 471 0
-379 -432 486 0
198 350 -356 0
5 39 455 0
-60 -82 85 0
-280 407 -498 0
255 484 -492 0
87 415 -437 0
44 46 -212 0
246 -286 359 0
178 218 -261 0
-142 -351 -481 0
-16 82 453 0
225 -493 498 0
-18 -59 -335 0
57 161 347 0
-278 -321 453 0
7 -14 446 0
-73 -106 -320 0
68 -408 418 0
-215 -308 468 0
-238 426 485 0
82 99 382 0
148 185 -204 0
8 -318 -470 0
168 -277 -335 0
-100 277 384 0
-4 -344 396 0
89 -128 -415 0
147 -257 489 0
97 -366 386 0
5 -84 350 0
-46 322 -430 0
-177 -288 497 0
6 17 490 0
12 -161 -256 0
-40 -43 146 0
-175 -300 -481 0
172 361 -397 0
133 -309 336 0
-124 147 -240 0
42 -196 -434 0
63 -154 -246 0
106 -231 -310 0
189 293 405 0
-45 -101 388 0
-117 -352 -419 0
-135 149 235 0
-258 -338 -484 0
-152 288 376 0
-97 168 207 0
145 -192 -421 0
-57 153 433 0
106 128 -253 0
134 177 459 0
189 233 -325 0
50 174 -439 0
183 -291 -476 0
32 239 -363 0
-316 -368 -478 0
-193 338 -444 0
-322 326 -355 0
-24 -224 -449 0
-1 -213 361 0
-132 148 329 0
-158 454 489 0
-28 -68 -368 0
14 -241 490 0
33 -368 485 0
277 -315 445 0
-204 408 426 0
166 304 480 0
-77 79 366 0
71 114 -411 0
32 -150 -397 0
-87 -103 -278 0
16 79 -225 0
74 294 336 0
-47 -306 -321 0
257 -352 -440 0
6 -249 475 0
-45 113 418 0
-138 -158 189 0
276 290 -361 0
112 -385 -400 0
96 312 337 0
208 308 471 0
-35 186 408 0
-247 -329 391 0
-242 -355 395 0
-26 79 195 0
-18 137 -391 0
-365 -416 -430 0
-254 271 -356 0
-86 344 366 0
-154 384 440 0
138 -281 -344 0
-139 412 478 0
-213 348 452 0
-226 267 273 0
-291 306 417 0
266 -278 385 0
22 -102 -494 0
132 245 254 0
-53 -118 -377 0
-54 318 -448 0
193 392 456 0
86 -235 261 0
91 428 -462 0
-20 125 179 0
56 -193 321 0
-117 231 -330 0
-322 -342 438 0
-18 259 313 0
-321 349 451 0
71 253 -343 0
37 -84 -414 0
145 152 -178 0
64 -333 -390 0
96 194 341 0
-96 168 184 0
-304 -427 -468 0
-102 -188 204 0
188 -387 -459 0
-88 -153 239 0
-34 -50 324 0
-320 -440 -482 0
64 -85 323 0
-4 206 349 0
55 -230 -307 0
-365 453 497 0
-114 122 -489 0
-292 -437 451 0
-60 161 -431 0
290 337 -486 0
105 175 -357 0
99 -209 410 0
86 186 -462 0
43 -213 -234 0
316 -455 497 0
113 -242 439 0
-168 252 -426 0
226 -291 310 0
-161 400 -478 0
171 -212 420 0
69 372 450 0
17 261 493 0
-3 68 350 0
273 -338 -457 0
-66 -367 -405 0
-48 96 404 0
17 40 -229 0
-243 -263 -280 0
-190 -313 -426 0
14 -84 -200 0
84 -100 -261 0
42 -188 -293 0
-131 -302 313 0
-118 275 -448 0
238 -324 -375 0
-133 -288 -342 0
92 194 243 0
-166 -365 -493 0
4 37 59 0
-211 321 -339 0
103 -151 489 0
267 305 -355 0
-48 131 -410 0
-50 -174 307 0
98 99 -317 0
280 316 -424 0
-251 -302 379 0
182 444 481 0
-8 143 240 0
-135 -202 282 0
78 -245 434 0
137 151 421 0
9 -83 297 0
52 244 320 0
-36 -67 -460 0
-344 363 -497 0
46 264 287 0
76 -420 -478 0
197 334 398 0
33 -41 -478 0
70 -233 449 0
41 212 -488 0
-80 -145 368 0
59 102 -142 0
-149 -249 483 0
-58 -354 451 0
257 -323 419 0
-74 208 -359 0
-8 -285 -369 0
-293 -321 326 0
-259 382 408 0
-52 -268 481 0
70 243 477 0
-36 185 408 0
-91 96 -212 0
91 192 388 0
-127 285 -378 0
232 377 -494 0
88 123 -460 0
-138 142 217 0
-87 238 -260 0
15 -336 431 0
31 236 -300 0
22 267 312 0
55 110 279 0
-118 181 -459 0
224 -248 402 0
192 -322 -442 0
-46 -223 340 0
-55 -118 -126 0
87 195 -298 0
-292 -350 457 0
-24 474 477 0
-262 280 447 0
-205 327 -372 0
-89 -135 -388 0
8 -76 349 0
-19 220 417 0
170 -197 -455 0
-74 -163 476 0
28 -137 257 0
-169 -448 -493 0
59 -254 -344 0
-200 410 -492 0
100 308 -357 0
-137 154 174 0
61 209 -214 0
83 -272 283 0
-351 -368 383 0
52 213 390 0
-94 -266 351 0
4 -98 -129 0
48 -329 414 0
-68 -130 374 0
163 -430 456 0
-170 187 334 0
-18 221 -292 0
12 405 -450 0
-46 -188 -193 0
71 -87 424 0
-58 248 253 0
-128 339 345 0
-214 259 491 0
-35 228 256 0
120 209 474 0
64 103 -379 0
27 240 -381 0
120 -302 347 0
96 -255 421 0
-84 -126 470 0
178 -307 326 0
-146 203 337 0
109 -278 482 0
43 -130 459 0
171 172 176 0
123 274 -415 0
-24 30 -127 0
35 -73 321 0
-78 283 343 0
190 334 -380 0
76 217 -348 0
75 376 404 0
362 -427 498 0
184 212 -448 0
-3 296 -448 0
245 -428 453 0
-15 -47 215 0
48 369 432 0
-23 42 148 0
247 309 -355 0
-413 -441 447 0
-161 233 -270 0
73 106 218 0
-22 221 240 0
-27 -421 -477 0
91 337 -464 0
-7 -494 -497 0
-171 -175 -368 0
28 296 -349 0
176 392 496 0
46 157 338 0
-30 -239 -319 0
120 -140 -342 0
-202 213 425 0
-80 -118 220 0
-119 170 385 0
-229 324 -382 0
49 83 -111 0
-100 -244 470 0
-139 404 -458 0
102 -439 450 0
-185 401 450 0
136 -261 -318 0
-313 -420 426 0
-78 155 217 0
139 204 495 0
138 355 453 0
-241 334 423 0
26 -423 -441 0
274 -324 348 0
-208 -362 -432 0
150 176 -428 0
198 284 393 0
-98 205 -270 0
40 417 418 0
-174 356 465 0
275 -329 -375 0
295 -349 -442 0
94 -321 -330 0
-314 -397 425 0
13 -474 488 0
135 -139 260 0
103 162 418 0
94 264 -490 0
-39 453 -459 0
-277 335 476 0
-2 -153 432 0
-19 -54 190 0
38 48 -386 0
-215 -405 -449 0
42 72 -358 0
-45 -127 -382 0
-219 423 -467 0
110 170 468 0
-155 -289 -314 0
67 130 443 0
263 386 444 0
-129 158 179 0
50 109 -305 0
159 353 -491 0
13 -245 -431 0
263 329 -396 0
-9 279 346 0
-1 -142 -451 0
-35 93 247 0
116 252 342 0
140 288 433 0
89 -309 371 0
-9 -37 74 0
104 -175 -383 0
-49 -329 485 0
20 -104 -280 0
-98 -367 500 0
-104 106 460 0
-30 44 336 0
125 -406 448 0
56 159 229 0
184 -290 307 0
-50 -145 -231 0
144 -452 481 0
-70 -80 178 0
-80 235 482 0
-17 303 354 0
-409 -421 464 0
109 169 277 0
-402 -453 -481 0
-154 163 298 0
275 372 405 0
-99 304 407 0
218 265 311 0
59 187 206 0
235 358 -471 0
-418 -429 472 0
-319 -320 -467 0
101 324 434 0
95 320 -351 0
-252 -296 -373 0
43 203 -211 0
116 -308 414 0
-24 -184 -330 0
112 -333 426 0
-307 397 -414 0
-274 376 -402 0
33 270 303 0
56 110 293 0
-33 112 402 0
-224 245 -481 0
33 -245 263 0
-117 -243 494 0
27 -454 -474 0
140 209 -352 0
-32 -422 500 0
27 -85 -339 0
-40 -418 -462 0
-121 176 252 0
-84 195 445 0
-300 -408 -421 0
171 -248 386 0
179 349 -362 0
127 268 -294 0
28 242 -437 0
140 150 -293 0
-126 147 154 0
215 481 -489 0
100 337 -492 0
-188 -244 354 0
194 -278 -389 0
-108 278 441 0
74 93 414 0
188 -371 445 0
12 48 -188 0
-67 186 364 0
211 -417 442 0
-114 158 -395 0
323 349 -380 0
-170 -229 310 0
130 -305 -451 0
-139 224 -245 0
66 244 445 0
-20 26 -444 0
-215 391 -444 0
-41 414 486 0
44 222 -274 0
-16 29 382 0
-12 183 -453 0
372 -397 -471 0
162 -218 251 0
-392 465 -466 0
225 -314 368 0
-73 -97 -184 0
197 -460 -493 0
-34 110 211 0
-201 -303 333 0
16 -83 -238 0
109 174 -453 0
61 -218 441 0
-169 388 -394 0
-88 -293 -406 0
286 -371 443 0
69 331 -401 0
72 145 408 0
70 -134 -451 0
330 -362 -436 0
100 329 -456 0
-193 389 437 0
-8 -60 265 0
131 266 -323 0
57 159 182 0
-311 315 -454 0
46 325 -409 0
-218 -311 -395 0
62 201 263 0
-32 228 -494 0
-44 88 -455 0
30 451 -494 0
-140 395 -450 0
123 272 431 0
259 262 343 0
42 -168 455 0
-123 -473 493 0
176 -335 474 0
11 58 -331 0
4 210 475 0
-62 -446 -480 0
60 353 -410 0
234 -300 466 0
29 35 -137 0
64 -146 256 0
152 319 486 0
-122 -298 393 0
-24 -324 -442 0
-82 186 -279 0
-134 238 413 0
64 -125 154 0
-85 284 -312 0
66 -192 387 0
178 -296 421 0
-112 233 397 0
-24 -185 -299 0
266 -445 -468 0
-294 377 -445 0
25 236 457 0
-125 -236 240 0
148 -441 -454 0
4 -83 205 0
100 -219 -398 0
181 213 -351 0
9 -255 470 0
35 448 -476 0
-264 276 470 0
-217 218 -247 0
212 326 465 0
-171 206 276 0
212 228 426 0
-198 201 -468 0
-42 171 -212 0
1 -124 207 0
-96 -365 -385 0
-39 -110 455 0
-145 377 -492 0
180 -221 453 0
22 -115 -283 0
22 -197 247 0
-216 -285 397 0
-89 189 370 0
-370 409 469 0
-95 -349 418 0
291 391 -453 0
-98 174 370 0
-99 219 -231 0
9 235 295 0
334 -459 -482 0
81 -165 205 0
45 -262 -413 0
85 341 -427 0
142 270 463 0
-283 -391 482 0
227 312 382 0
-122 -353 471 0
-133 -317 -344 0
98 -122 -403 0
-118 -260 -266 0
-66 259 462 0
-210 433 -449 0
-33 -135 -427 0
-11 260 297 0
202 -330 457 0
158 232 -436 0
16 66 119 0
160 234 -442 0
158 -192 -354 0
187 -411 -445 0
177 -194 291 0
-250 -274 406 0
208 358 486 0
-186 233 -418 0
-180 -464 465 0
136 405 -479 0
433 468 471 0
-29 -194 417 0
-299 319 369 0
162 284 396 0
95 -393 457 0
-100 129 297 0
-54 -171 -466 0
-169 248 268 0
-186 -364 -434 0
153 265 357 0
-64 -214 -269 0
162 420 -480 0
31 -220 371 0
95 120 -157 0
2 -61 229 0
-131 -274 -393 0
276 -334 476 0
218 289 432 0
216 290 339 0
-432 440 -481 0
-85 -264 -448 0
65 -139 337 0
-106 253 426 0
181 -393 443 0
-189 337 346 0
4 -415 458 0
-42 81 334 0
-39 -42 -94 0
-35 -274 -451 0
-76 -250 286 0
137 321 482 0
190 214 -344 0
-158 254 422 0
-40 -249 -400 0
-138 -241 436 0
91 337 -496 0
5 -370 432 0
153 -281 -296 0
298 -308 465 0
-99 193 260 0
-97 235 289 0
-58 426 465 0
38 -383 399 0
8 -317 -385 0
330 -439 -453 0
254 -316 344 0
-153 274 495 0
-19 -141 149 0
-272 309 -381 0
-36 95 499 0
64 -106 -325 0
-42 -291 -454 0
-215 -229 -468 0
207 -214 247 0
254 341 404 0
-69 87 -485 0
86 -369 -414 0
136 -278 355 0
186 225 345 0
-43 387 -395 0
98 253 -404 0
281 325 -362 0
-260 377 428 0
-142 -194 -324 0
-45 -129 397 0
72 179 -327 0
-131 -251 -470 0
54 -88 -254 0
-170 -409 438 0
78 190 439 0
57 179 264 0
181 -195 488 0
199 328 383 0
28 169 184 0
338 -377 -426 0
69 169 472 0
30 -151 456 0
25 -55 -430 0
-7 -426 479 0
-114 -175 -247 0
37 -149 -195 0
-46 -438 491 0
246 -448 493 0
-304 374 -406 0
89 -278 -314 0
3 -41 230 0
433 473 -478 0
101 411 436 0
-51 436 -465 0
45 -347 486 0
-188 253 325 0
64 -98 481 0
-50 231 472 0
-65 330 -440 0
-58 -277 355 0
173 -298 397 0
121 329 433 0
-126 -149 -346 0
-272 286 -351 0
7 123 -463 0
-138 -291 469 0
-247 -356 377 0
156 187 -322 0
-275 358 -489 0
-47 -358 391 0
-115 -395 436 0
-192 -242 -400 0
18 420 -441 0
-76 181 -437 0
-93 -124 416 0
225 -408 -443 0
-340 -393 -466 0
132 239 -271 0
188 -256 -332 0
-60 188 380 0
30 -79 469 0
-198 -346 433 0
148 -257 -326 0
153 182 -194 0
136 -202 419 0
-178 220 -470 0
-239 -306 -449 0
198 323 -329 0
-46 -56 400 0
196 -288 -484 0
-16 284 468 0
54 -224 315 0
-51 -235 448 0
-219 -300 433 0
120 -248 490 0
89 -477 -491 0
97 -335 -386 0
-155 -213 499 0
39 -171 -230 0
89 102 226 0
-204 -228 -270 0
-36 -220 -432 0
239 282 464 0
-86 -446 -493 0
-122 176 -470 0
-317 -342 -471 0
53 -211 -266 0
-396 405 423 0
-89 118 -471 0
-272 -420 431 0
115 -164 174 0
-217 389 397 0
-147 -330 -369 0
-66 -79 424 0
-27 -176 -382 0
58 252 311 0
-121 -187 -446 0
317 347 354 0
107 404 -478 0
321 358 408 0
-130 -275 298 0
138 -151 -304 0
-88 126 414 0
-6 231 252 0
403 417 487 0
-4 -57 109 0
249 -346 348 0
-83 -85 175 0
-117 -265 496 0
95 197 -211 0
-172 -207 487 0
-126 176 -428 0
156 157 -194 0
8 -102 -239 0
119 162 -281 0
-117 216 -338 0
200 229 331 0
-376 433 -479 0
129 -292 402 0
-3 -326 460 0
-46 -104 -409 0
232 236 -382 0
-218 -339 482 0
66 110 -117 0
303 348 480 0
209 224 378 0
-38 -164 -290 0
-37 -197 401 0
-11 233 -487 0
-160 -436 443 0
-47 150 -198 0
-34 69 375 0
-206 -288 436 0
246 329 467 0
-93 -281 -321 0
191 -252 -458 0
265 -316 342 0
-92 -108 352 0
-327 -380 -401 0
6 -202 -339 0
14 -379 -499 0
136 -381 -422 0
-240 304 -377 0
432 -459 466 0
-121 -244 -467 0
197 -255 465 0
-69 359 -369 0
19 -76 337 0
-12 -143 -155 0
134 -344 450 0
109 129 190 0
17 -178 -300 0
-97 367 400 0
-26 -218 274 0
-54 -66 132 0
-168 -246 -478 0
-218 402 -474 0
162 -469 487 0
300 307 376 0
27 100 -256 0
99 -225 -444 0
-18 154 -462 0
199 468 474 0
-72 295 394 0
58 174 -295 0
48 427 457 0
-93 332 346 0
-57 382 452 0
40 174 262 0
-214 279 -478 0
-203 347 -488 0
-21 -192 422 0
-155 247 -320 0
-263 -319 429 0
-74 180 189 0
-123 -370 -444 0
1 237 448 0
450 -469 -483 0
94 -266 -311 0
114 -393 -452 0
-50 -201 -463 0
-190 347 409 0
308 -323 -337 0
290 304 -330 0
-24 67 -284 0
198 -290 -420 0
-238 -288 -446 0
-53 415 -416 0
95 -148 355 0
179 199 241 0
193 246 -479 0
-196 206 277 0
25 168 391 0
-225 -340 429 0
-262 373 419 0
-38 106 -460 0
69 -103 -494 0
-166 356 -455 0
-242 268 -328 0
-100 -264 490 0
152 305 -350 0
-4 -26 -190 0
-7 -150 -364 0
-201 -308 377 0
-32 -96 -496 0
27 -99 -273 0
-81 -410 420 0
158 276 359 0
-3 54 134 0
39 389 -480 0
104 -239 -491 0
403 417 427 0
-188 -307 467 0
99 -145 -274 0
24 423 454 0
54 349 494 0
-38 119 -458 0
195 -355 -496 0
51 137 475 0
-132 253 -296 0
21 -71 -374 0
