c description: Random 3-CNF over 500 variables and 2129 clauses
c generator: CNFgen (0.9.6)
c copyright: (C) 2012-2026 Massimo Lauria <massimo.lauria@uniroma1.it>
c url: https://massimolauria.net/cnfgen
c command line: cnfgen randkcnf 3 500 2129
c
p cnf 500 2129
351 -451 478 0
74 -210 298 0
-69 -197 414 0
140 219 -495 0
-320 -330 -458 0
105 196 -464 0
4 227 479 0
-7 -140 -426 0
89 140 476 0
-104 -390 -455 0
-67 81 359 0
45 327 -475 0
-78 490 -492 0
-67 -95 -235 0
13 -18 -55 0
10 26 65 0
294 -418 -499 0
-181 -212 -307 0
82 400 -479 0
272 286 491 0
-176 299 363 0
-413 -471 493 0
3 268 274 0
147 322 389 0
395 -425 -451 0
-70 -164 -330 0
-15 -61 -497 0
-157 -252 -486 0
120 184 -477 0
17 104 -381 0
74 146 384 0
290 -297 -376 0
-176 272 -280 0
-54 -179 205 0
-9 288 -314 0
-87 168 349 0
69 -246 -284 0
-296 -327 442 0
-244 318 441 0
93 205 497 0
-219 -302 391 0
-82 -375 -378 0
181 280 -484 0
8 249 -464 0
20 149 420 0
94 -326 -465 0
-62 103 358 0
45 -87 405 0
-47 -79 -248 0
-249 372 379 0
94 -202 -253 0
-87 182 408 0
81 120 -496 0
-176 326 -406 0
-236 258 -349 0
-64 131 -183 0
-78 337 -424 0
-258 -274 -405 0
-99 -330 -339 0
-13 -327 426 0
18 -87 247 0
278 -447 461 0
-110 -194 365 0
-109 -324 356 0
112 350 -493 0
-222 -428 482 0
-30 204 266 0
26 -51 -437 0
-127 -361 381 0
28 -211 -466 0
334 349 495 0
-152 298 -390 0
-281 -295 -311 0
101 490 497 0
113 223 360 0
-20 319 -481 0
114 275 462 0
-320 -479 -488 0
23 -199 -425 0
66 294 396 0
256 354 362 0
328 -443 -460 0
-28 -311 441 0
-93 -161 -188 0
-22 -102 -215 0
-196 -257 -358 0
-36 127 491 0
-129 303 -404 0
57 -251 266 0
166 434 435 0
-7 -95 -473 0
-224 -350 403 0
-58 -102 446 0
167 256 350 0
227 -419 -438 0
-87 -176 -300 0
78 87 401 0
-193 380 384 0
-172 322 405 0
98 113 -146 0
-13 33 -344 0
155 415 438 0
-123 -329 -436 0
-110 355 -484 0
-155 221 491 0
161 -459 490 0
-191 311 -460 0
78 -259 -297 0
-75 412 -459 0
-303 -334 393 0
213 315 401 0
-79 -129 -160 0
103 255 -323 0
148 -260 283 0
-36 -46 -346 0
59 -276 416 0
55 -61 -342 0
376 -448 481 0
40 360 496 0
-72 -116 -388 0
-107 116 353 0
-13 247 -298 0
126 153 213 0
-110 285 354 0
76 193 -197 0
-128 415 -422 0
33 -275 -489 0
-185 428 -498 0
371 -376 -424 0
-43 -216 248 0
-274 -329 -342 0
-105 151 -274 0
-94 160 -461 0
80 -167 312 0
-68 -408 442 0
48 115 -161 0
-49 96 262 0
68 -194 -281 0
175 -215 380 0
150 323 -493 0
-298 -308 450 0
158 236 -458 0
-76 -86 -331 0
251 316 462 0
-6 -181 -454 0
-27 -145 178 0
300 -480 -481 0
119 311 329 0
-244 297 441 0
118 -381 -410 0
-222 -344 -425 0
-8 296 -483 0
47 -216 -335 0
-52 -194 -458 0
-37 -268 -388 0
-181 259 -309 0
48 52 341 0
376 -409 435 0
-262 -364 426 0
107 -233 -438 0
209 -403 -417 0
-49 -230 395 0
-155 -274 -419 0
195 -251 -417 0
-88 310 -421 0
-263 -288 -333 0
-146 175 294 0
174 291 -337 0
55 169 355 0
80 359 425 0
-23 316 483 0
19 107 277 0
-265 306 340 0
-120 357 428 0
-136 224 276 0
350 -449 -494 0
136 -190 -485 0
-19 -290 315 0
247 303 -437 0
69 100 -153 0
206 -339 402 0
214 302 -440 0
-89 236 487 0
-87 -92 -266 0
32 -102 213 0
-245 -327 431 0
17 -181 366 0
212 314 -414 0
-55 -79 -151 0
106 -128 280 0
-20 250 401 0
262 290 417 0
-58 -424 -471 0
109 -153 314 0
-259 269 -338 0
61 406 429 0
80 239 -482 0
-93 140 -332 0
406 -426 -444 0
260 264 -371 0
-215 250 452 0
-54 -205 -355 0
2 -358 -485 0
56 84 -311 0
111 143 330 0
76 -266 -346 0
-256 420 448 0
-72 -172 255 0
-88 -227 244 0
-295 321 -416 0
233 -281 -332 0
4 -81 -170 0
35 136 -270 0
53 -242 -408 0
93 -281 -428 0
67 -241 390 0
-95 -346 -443 0
82 -282 -347 0
-100 259 355 0
-4 -44 312 0
-8 273 425 0
-21 202 -339 0
246 -314 387 0
76 257 282 0
-45 -62 -82 0
-64 285 -420 0
-137 158 -395 0
-70 369 -374 0
22 33 275 0
-284 466 471 0
-143 -290 325 0
292 -459 -479 0
239 -343 -421 0
179 -232 358 0
-222 -282 -411 0
431 467 -490 0
-70 -279 -323 0
136 -269 -494 0
18 151 -222 0
84 -156 310 0
330 -344 -450 0
111 -206 480 0
-23 -280 -386 0
-5 -6 -485 0
110 -337 -391 0
-237 -345 -477 0
-40 259 310 0
211 -291 -383 0
85 318 384 0
23 232 403 0
105 114 -222 0
269 -463 -467 0
177 453 -466 0
96 -191 409 0
-211 244 263 0
-314 477 -478 0
-41 -298 -415 0
96 -317 352 0
320 331 -412 0
-11 157 433 0
-132 -167 -392 0
-13 -104 -316 0
384 410 -429 0
-312 426 443 0
31 -313 -391 0
-8 -54 222 0
54 -390 392 0
-14 -109 -406 0
-38 124 -154 0
159 -283 -344 0
-37 -251 -327 0
-277 327 492 0
79 197 233 0
63 224 -316 0
128 -132 -283 0
179 430 472 0
-60 -287 -468 0
-140 181 250 0
164 -382 -466 0
243 -258 -285 0
-145 366 -379 0
64 318 -395 0
172 -289 369 0
90 -206 443 0
170 -257 -429 0
33 167 -209 0
-170 266 320 0
34 82 256 0
102 -127 -338 0
-46 -209 409 0
90 -147 -191 0
-153 -228 425 0
24 -81 301 0
-83 -170 458 0
26 258 -317 0
19 -404 -466 0
-170 274 378 0
117 202 239 0
159 -172 -293 0
-315 362 -378 0
150 222 357 0
284 -402 -440 0
143 398 461 0
-205 234 306 0
183 187 296 0
-43 75 80 0
-170 -340 -412 0
-261 -282 -411 0
421 482 489 0
-29 256 -310 0
50 226 -313 0
-152 449 -499 0
-113 358 -388 0
30 -154 -402 0
-157 -312 372 0
96 440 461 0
-136 -159 -176 0
-23 -127 179 0
7 181 242 0
-167 -272 -341 0
78 168 242 0
-136 -204 491 0
247 -434 489 0
13 -114 325 0
4 249 392 0
-76 208 -368 0
177 261 -280 0
60 -438 -487 0
371 -420 -454 0
-146 165 -317 0
144 -171 323 0
-87 424 -467 0
-191 -309 315 0
94 220 -480 0
116 132 -240 0
180 -337 352 0
111 -224 297 0
71 228 -422 0
96 187 208 0
38 287 -415 0
-360 -421 446 0
4 -288 306 0
296 385 -475 0
83 379 460 0
289 298 -466 0
57 205 451 0
50 -290 -335 0
-245 330 -493 0
107 -417 -423 0
142 -162 433 0
-79 241 402 0
-2 277 323 0
127 155 -411 0
-92 -108 -310 0
-261 -267 -327 0
-10 109 -500 0
-233 -254 -448 0
362 -446 -500 0
-291 363 399 0
195 364 474 0
16 -116 -151 0
206 221 353 0
-85 297 479 0
-15 311 -496 0
-116 123 190 0
55 -284 -305 0
188 -240 -498 0
-98 -216 -282 0
143 316 408 0
-2 145 280 0
-46 246 -458 0
143 -293 -413 0
-168 346 370 0
-220 278 336 0
-147 -359 453 0
-166 -203 437 0
233 -243 287 0
36 224 301 0
35 125 -450 0
-76 217 -497 0
138 -272 -491 0
-98 396 467 0
23 153 329 0
-118 204 306 0
69 198 377 0
-174 313 -465 0
272 371 -439 0
-113 -187 -256 0
5 191 229 0
-85 -188 332 0
-45 -59 -291 0
140 391 423 0
224 -451 -452 0
20 356 471 0
-33 -146 340 0
239 -316 -400 0
46 135 -288 0
-97 177 -228 0
80 173 -471 0
-133 -208 260 0
-232 399 456 0
-15 383 428 0
217 260 426 0
-151 -225 -361 0
-253 337 -423 0
63 -83 -222 0
-79 341 -349 0
-53 157 192 0
30 -291 419 0
119 239 -328 0
43 58 82 0
215 -223 241 0
-86 122 -274 0
-193 399 -482 0
-22 215 -386 0
15 154 449 0
171 228 -362 0
-122 -210 -397 0
143 347 -370 0
193 -239 332 0
246 351 470 0
-96 248 301 0
182 -343 361 0
-24 123 -263 0
-17 268 -427 0
22 -205 -302 0
186 -236 477 0
35 69 -343 0
96 113 319 0
71 298 -446 0
117 171 247 0
30 -116 -421 0
-283 291 -416 0
-87 -257 -458 0
-79 -332 -472 0
-307 -408 -469 0
4 -346 355 0
78 -200 311 0
-68 326 332 0
214 -238 272 0
113 -146 -149 0
-60 -145 283 0
-2 329 352 0
216 -338 468 0
-109 377 441 0
170 -438 486 0
7 -345 -460 0
-72 -74 112 0
-206 -325 434 0
-85 -233 -419 0
250 344 -367 0
-113 174 -415 0
8 48 236 0
21 -421 -490 0
-263 -336 493 0
326 -340 -384 0
12 103 406 0
210 -345 -430 0
-286 335 357 0
-11 -183 -308 0
123 -337 -428 0
10 41 -273 0
-26 276 -343 0
165 -280 -358 0
-78 288 -398 0
60 -101 -257 0
-46 92 249 0
-265 286 359 0
-27 -346 417 0
286 -434 -452 0
115 -153 -328 0
258 282 -489 0
-186 322 -357 0
-142 409 415 0
72 -177 -454 0
422 435 465 0
-29 39 -322 0
241 260 480 0
-103 -127 -170 0
-40 -138 264 0
-42 -305 -431 0
289 388 493 0
-10 49 -470 0
55 -310 390 0
311 -383 478 0
24 99 413 0
-18 -57 -277 0
84 -460 493 0
39 -155 305 0
-2 -162 -232 0
105 -304 423 0
161 -414 441 0
89 242 483 0
-328 -422 -484 0
-195 220 -384 0
156 -285 -337 0
19 90 -297 0
5 -220 -332 0
87 88 488 0
86 -146 183 0
-41 42 473 0
34 -61 72 0
-307 313 344 0
-291 -347 -406 0
-279 357 412 0
-10 388 -404 0
-150 291 -365 0
49 -95 -346 0
-137 178 208 0
30 -31 -344 0
286 288 -466 0
-124 334 392 0
-184 217 400 0
-188 -218 350 0
-121 -171 -475 0
309 -408 -482 0
380 -385 -424 0
103 133 -217 0
-39 -149 -219 0
-109 -331 -411 0
-363 -364 383 0
277 -302 497 0
12 59 141 0
355 -398 485 0
19 330 -342 0
83 213 -230 0
-103 321 465 0
103 375 491 0
-5 -8 -65 0
-90 371 -491 0
178 -332 486 0
20 47 250 0
-267 -295 348 0
123 -243 -493 0
245 -248 282 0
-8 150 -483 0
-7 -39 -489 0
-395 403 -500 0
101 386 -398 0
-230 459 -473 0
-3 281 -339 0
183 204 -209 0
-60 315 487 0
-139 365 -484 0
-281 -384 459 0
-31 312 -368 0
244 346 467 0
-97 153 -453 0
38 262 -442 0
-40 189 294 0
-210 262 321 0
-205 263 410 0
-46 230 -388 0
-91 357 394 0
-85 263 439 0
-144 167 -301 0
260 -355 365 0
38 -427 -484 0
90 -149 318 0
-134 -193 -278 0
266 272 -444 0
-38 194 486 0
34 -191 -238 0
1 -391 -494 0
164 322 -374 0
178 -237 -422 0
137 -201 213 0
-1 28 132 0
-375 435 468 0
99 163 297 0
-232 -276 -441 0
-59 -112 -182 0
-192 237 344 0
141 220 -437 0
38 -111 295 0
-12 -139 479 0
-120 381 450 0
84 294 -445 0
67 191 -477 0
-182 197 -286 0
47 -152 -287 0
-159 261 483 0
-45 -307 -361 0
-394 402 -438 0
-363 -393 -468 0
168 447 -487 0
73 -145 -460 0
-277 -378 381 0
67 -142 -295 0
52 -144 -348 0
-27 -44 -345 0
91 229 266 0
-39 47 -276 0
47 49 -452 0
302 -349 -389 0
111 358 494 0
-19 -82 210 0
-1 -166 -288 0
-222 226 -450 0
37 -118 457 0
-62 96 140 0
366 395 476 0
-5 127 214 0
27 83 -398 0
91 113 227 0
30 -169 -328 0
75 167 -470 0
175 184 215 0
-108 137 -401 0
97 360 -450 0
181 -393 -500 0
31 350 450 0
-20 -256 271 0
27 -115 -479 0
-198 322 385 0
-211 233 394 0
-106 160 217 0
67 -111 387 0
-142 -228 356 0
-152 224 495 0
29 193 -447 0
170 -380 439 0
1 -146 397 0
96 141 -282 0
246 356 398 0
-40 -227 379 0
36 76 -264 0
19 -210 378 0
-55 65 420 0
-191 -224 -231 0
27 99 444 0
-108 355 -471 0
-162 485 -496 0
-80 -132 378 0
1 -12 -312 0
-38 -268 335 0
240 308 475 0
-103 -239 303 0
-12 -302 -482 0
-225 -321 453 0
-26 256 373 0
204 -277 421 0
126 -351 -354 0
21 -278 327 0
-252 -424 434 0
-24 154 -268 0
-248 280 -384 0
-105 -123 358 0
109 -135 496 0
-133 196 -474 0
-69 -292 347 0
-15 -322 352 0
305 -389 464 0
3 42 262 0
38 -361 -456 0
-188 199 -449 0
-84 -151 -409 0
179 -300 465 0
127 303 -378 0
18 -123 386 0
116 163 -247 0
133 245 293 0
314 408 497 0
210 -249 -306 0
-25 -71 290 0
-266 272 442 0
-22 189 -467 0
322 -380 -429 0
22 263 334 0
-2 77 -243 0
44 -160 428 0
-187 405 471 0
-249 -342 484 0
-175 -218 -292 0
41 210 269 0
19 78 235 0
55 169 262 0
263 -272 467 0
-266 340 471 0
160 162 -456 0
-4 -193 213 0
304 376 -403 0
-95 126 485 0
25 -351 360 0
-238 -338 -390 0
-155 277 283 0
-38 -64 429 0
-104 -151 460 0
82 -167 -281 0
19 -164 -186 0
45 -71 -279 0
-225 -255 -347 0
-62 179 -477 0
-55 -97 -285 0
-14 121 -192 0
-66 174 204 0
10 -393 482 0
14 -318 -369 0
-97 129 -160 0
151 231 -244 0
-30 -179 421 0
-137 204 -284 0
-407 427 -463 0
-210 285 -415 0
73 176 365 0
-34 -434 -464 0
196 -354 -356 0
-95 -98 -396 0
-297 472 473 0
-207 350 -389 0
-296 -326 338 0
69 335 -369 0
94 453 459 0
-158 -242 329 0
85 -298 -306 0
22 112 301 0
-213 277 -493 0
130 307 -330 0
-50 303 -369 0
103 189 421 0
292 345 479 0
34 -101 288 0
204 -322 376 0
110 217 -391 0
-29 -65 -384 0
-54 283 454 0
214 330 -333 0
287 -347 -487 0
-115 205 427 0
-187 399 -415 0
3 -225 -439 0
-214 351 -369 0
81 344 -474 0
-11 33 348 0
-264 290 466 0
-51 -126 -336 0
4 278 -376 0
-169 -332 424 0
288 412 445 0
87 -182 -248 0
-367 -391 -397 0
34 128 234 0
-86 120 127 0
-114 -160 -433 0
-179 -278 301 0
-54 -452 468 0
-108 -133 -497 0
49 -250 274 0
29 93 -397 0
-245 -281 -333 0
-327 -348 -462 0
18 137 -279 0
-143 354 -436 0
219 321 496 0
-131 277 -404 0
84 -203 -297 0
85 182 292 0
32 37 -52 0
-128 -174 -243 0
159 229 377 0
268 -348 -373 0
-228 -309 350 0
133 -162 492 0
-362 457 459 0
-89 144 -211 0
-17 -216 296 0
183 -198 447 0
11 -140 -316 0
-36 -48 54 0
-122 219 -373 0
104 -225 416 0
-68 140 277 0
-4 -140 -266 0
51 117 145 0
-186 476 -478 0
27 -84 -308 0
35 -237 317 0
270 353 374 0
13 258 493 0
-139 393 435 0
-63 374 418 0
-72 401 489 0
-138 252 -337 0
-72 168 -478 0
-344 456 464 0
76 126 -197 0
-215 438 477 0
-240 -377 -457 0
-280 -324 -444 0
-75 -82 370 0
307 -327 500 0
124 217 -290 0
72 -263 -426 0
192 209 451 0
5 -102 -216 0
77 -340 -362 0
28 -177 396 0
46 243 472 0
-173 -281 -433 0
-145 -346 -396 0
71 -312 -361 0
-70 -237 -407 0
-153 294 314 0
147 -228 -430 0
-63 -192 -336 0
-9 43 -324 0
36 -177 212 0
232 268 431 0
-3 425 -432 0
187 -262 460 0
-222 -250 -452 0
22 -84 100 0
-168 266 -488 0
-83 -121 -408 0
-22 -454 484 0
6 -238 -394 0
79 -255 -330 0
-324 -397 -428 0
-119 -171 498 0
165 238 305 0
-9 -152 381 0
-18 93 -132 0
-21 54 -494 0
-259 268 356 0
117 262 391 0
-93 134 -500 0
232 -295 441 0
77 -249 -337 0
-138 -148 -438 0
70 147 377 0
-6 114 202 0
-86 -105 -388 0
79 -80 -216 0
7 -49 307 0
30 204 -397 0
48 144 453 0
-53 290 -443 0
96 237 -394 0
173 361 410 0
-66 71 384 0
-92 224 -287 0
-144 -446 -467 0
-60 -80 -274 0
-182 355 -464 0
-57 -112 -159 0
-89 316 -485 0
265 454 -458 0
-37 173 371 0
-40 -104 -443 0
-103 119 -157 0
-107 -223 244 0
360 367 485 0
110 -144 398 0
257 -338 -384 0
-163 212 -358 0
-15 394 -397 0
91 -380 472 0
375 476 -487 0
-334 422 -442 0
51 -117 -240 0
65 113 -277 0
109 -376 406 0
-61 -89 273 0
-28 -463 -468 0
-8 83 -122 0
96 -136 285 0
57 328 -410 0
-54 -162 -485 0
-34 350 -414 0
-13 -87 -249 0
258 -297 421 0
389 460 -464 0
-9 -33 361 0
2 -163 373 0
-46 -174 -255 0
26 -84 330 0
-108 -263 298 0
128 -315 -391 0
37 336 -340 0
7 36 -238 0
44 -111 407 0
-32 398 419 0
-149 -234 310 0
51 -241 -327 0
252 -302 374 0
-253 255 -302 0
-125 -130 -366 0
21 -56 -93 0
153 -216 -342 0
314 -419 458 0
-40 -211 497 0
-140 201 -210 0
83 95 -471 0
118 220 -495 0
-9 -218 329 0
266 345 496 0
-32 -169 -278 0
256 -276 -381 0
-205 -259 484 0
250 -383 -402 0
-82 125 -282 0
54 93 -369 0
102 -191 -484 0
198 304 -311 0
-109 229 409 0
197 -262 459 0
-366 405 433 0
-97 -312 -355 0
-69 -368 457 0
-8 -146 -298 0
76 299 -357 0
405 453 495 0
-60 277 -478 0
149 213 293 0
-31 -56 433 0
-363 370 435 0
-147 190 352 0
-57 -150 -314 0
74 242 299 0
-153 -296 493 0
-186 275 -347 0
-107 -190 430 0
17 32 -95 0
-33 -241 423 0
-73 124 -283 0
97 -322 481 0
146 -264 -483 0
-61 -122 -449 0
101 116 402 0
-213 235 -340 0
62 215 -264 0
112 -182 -190 0
-57 204 -390 0
-26 -322 -409 0
308 359 -447 0
-100 189 320 0
-62 324 361 0
-38 339 388 0
179 346 448 0
-81 -120 -346 0
-8 19 -400 0
-5 100 212 0
-26 135 210 0
136 327 356 0
21 56 313 0
109 -208 248 0
139 -166 -325 0
117 142 270 0
-5 -60 -403 0
80 191 210 0
49 156 342 0
-20 -42 -113 0
138 -309 450 0
-117 -433 452 0
-229 -300 368 0
360 368 449 0
66 238 382 0
21 -263 403 0
261 -267 500 0
-123 -324 -389 0
165 -206 380 0
-117 287 -344 0
33 -223 383 0
-121 -368 -401 0
76 294 -466 0
-110 389 -458 0
348 -408 484 0
-318 -404 -410 0
61 -147 -395 0
-65 252 271 0
5 230 292 0
-249 -282 449 0
142 -171 -414 0
-152 205 401 0
-139 -209 384 0
114 -304 328 0
-53 -87 203 0
-207 247 405 0
17 73 142 0
8 -52 217 0
-75 157 -477 0
-280 -341 405 0
-223 275 -471 0
-209 -254 -297 0
131 257 -391 0
72 264 344 0
-194 -221 -341 0
354 393 458 0
-167 239 -299 0
-156 -218 407 0
-66 269 406 0
-351 477 -497 0
53 339 -439 0
-159 181 361 0
-221 369 495 0
2 -249 386 0
123 225 453 0
51 -176 -210 0
311 -406 417 0
175 -368 -396 0
-104 -156 -349 0
-21 433 -497 0
203 229 372 0
-176 -243 -403 0
41 -229 -362 0
-117 -267 -443 0
-88 319 430 0
79 -141 -191 0
-251 -271 369 0
-31 165 -495 0
11 -36 314 0
-65 406 -409 0
-158 161 419 0
-83 -144 -235 0
-96 316 486 0
84 -312 477 0
-127 -249 -310 0
-174 -310 -474 0
-134 -310 474 0
99 361 -445 0
-301 -419 421 0
225 -236 266 0
-229 296 -369 0
-113 -157 273 0
-224 339 418 0
-113 174 -310 0
160 -425 437 0
-5 -143 -459 0
-128 297 -380 0
-141 204 399 0
-90 270 -499 0
-102 230 -484 0
-176 220 488 0
-48 53 398 0
-31 391 449 0
145 -314 -488 0
208 331 -408 0
42 223 425 0
105 232 -297 0
-12 155 415 0
163 -292 442 0
253 402 414 0
26 435 -469 0
-80 -91 -438 0
114 -142 194 0
-235 261 376 0
-96 189 -219 0
-206 -228 -287 0
-97 -325 -344 0
-123 355 -427 0
219 -323 425 0
-135 212 258 0
-217 474 495 0
-202 443 -491 0
-12 26 174 0
10 -90 -191 0
-110 -355 405 0
-127 -233 -395 0
-41 175 186 0
-117 228 -283 0
-50 -117 -267 0
-12 391 425 0
-116 -139 -263 0
139 -419 459 0
244 396 425 0
2 -198 451 0
-156 -198 -317 0
-97 107 -299 0
121 214 322 0
-110 211 -402 0
17 -93 -381 0
-35 105 476 0
276 415 466 0
83 145 -278 0
-156 316 -406 0
-25 263 456 0
-145 447 486 0
-57 -319 330 0
173 -218 463 0
84 -142 362 0
92 358 -374 0
-55 -113 -269 0
-1 96 -147 0
-54 -60 383 0
-158 -220 -426 0
34 39 -399 0
-52 -277 500 0
41 -238 253 0
-15 34 -37 0
-83 375 492 0
-13 50 -305 0
-39 172 -177 0
-157 -172 -239 0
-57 -234 237 0
74 -241 488 0
-57 -58 -395 0
-131 317 398 0
-35 206 -258 0
-267 466 -484 0
-112 146 496 0
90 135 488 0
-12 -234 -448 0
349 -360 363 0
282 -382 -427 0
54 91 474 0
-35 382 -392 0
230 337 -354 0
-54 -326 472 0
22 28 490 0
-60 343 -394 0
5 100 -396 0
-209 -221 384 0
79 -195 -411 0
-169 235 351 0
-288 341 387 0
-325 -345 365 0
-284 -448 461 0
1 67 -177 0
167 225 -314 0
-126 188 396 0
61 300 424 0
-45 -73 -98 0
-55 91 444 0
-213 -389 483 0
-53 -297 496 0
138 208 -437 0
-107 -259 -428 0
119 232 -306 0
-163 405 -429 0
-136 -216 -391 0
-298 386 485 0
79 136 305 0
251 317 -402 0
98 345 384 0
-185 212 -244 0
-67 -447 -491 0
-96 122 -342 0
28 -207 -247 0
193 268 490 0
-37 -65 -152 0
-334 -386 -421 0
119 153 449 0
14 -85 -88 0
-115 -174 -193 0
35 -79 449 0
-98 181 414 0
-43 -157 225 0
63 -90 220 0
-44 -55 473 0
79 -138 359 0
-335 346 439 0
3 -233 -455 0
-218 -314 -498 0
201 205 269 0
-47 -333 481 0
-174 249 -282 0
147 -210 -263 0
-26 -113 261 0
-8 22 87 0
-41 -305 -346 0
-54 122 -410 0
-18 -91 385 0
-238 -296 -487 0
1 -231 331 0
15 185 226 0
46 -290 -385 0
-115 -167 -338 0
-35 -210 -422 0
212 -273 -436 0
-99 331 -445 0
207 -225 -315 0
74 180 -465 0
174 -392 -479 0
-10 -402 -454 0
184 -269 -356 0
8 41 -84 0
25 100 473 0
-172 -261 -446 0
20 385 -451 0
-155 -237 291 0
-251 -269 -403 0
-60 160 362 0
-210 284 -379 0
-75 -234 359 0
261 -409 430 0
-133 221 344 0
-195 405 -483 0
22 -50 -443 0
-48 209 -283 0
55 -108 225 0
113 205 -462 0
-101 322 480 0
-89 -99 177 0
-17 75 -286 0
186 -224 -455 0
311 366 -384 0
-359 447 461 0
-119 440 473 0
-117 -238 -272 0
-229 240 -413 0
229 -264 -452 0
-256 -360 -488 0
37 -304 435 0
-12 137 497 0
3 -192 256 0
-44 152 -353 0
125 260 449 0
-178 -256 495 0
-102 -161 -377 0
-118 -366 -374 0
48 -346 -454 0
-18 -247 -285 0
-65 -79 492 0
11 -251 -453 0
-64 -142 -149 0
153 401 427 0
11 -130 300 0
107 179 -429 0
-9 176 485 0
4 -24 -331 0
-85 425 -459 0
76 256 -372 0
54 335 -492 0
-48 141 223 0
197 -209 475 0
335 -344 454 0
195 216 425 0
-98 -201 -396 0
-34 88 338 0
-97 251 -390 0
57 179 432 0
26 170 -417 0
-56 -422 488 0
58 -83 339 0
-12 -141 -142 0
-54 316 -338 0
106 231 485 0
-85 211 -249 0
-130 -149 252 0
-258 302 317 0
-274 -372 -386 0
-85 -229 331 0
18 71 119 0
162 -219 263 0
141 443 -467 0
-275 381 -416 0
-311 474 481 0
-76 -246 -365 0
-87 214 305 0
66 269 -292 0
-45 62 -269 0
-232 -330 -346 0
293 -424 -465 0
-30 -108 384 0
117 252 -257 0
343 -408 -496 0
-85 174 380 0
-189 -293 390 0
7 -88 -306 0
133 268 432 0
-178 -213 362 0
-97 -182 428 0
74 -147 -442 0
286 388 447 0
283 348 -468 0
114 -215 -372 0
36 -74 -495 0
148 166 -484 0
255 -334 489 0
1 300 -441 0
-15 -271 299 0
-151 -289 384 0
257 450 -459 0
220 -364 -473 0
224 -257 -320 0
-72 -133 -398 0
92 -394 -437 0
-58 211 -462 0
-57 -61 414 0
-60 121 -408 0
172 182 217 0
58 87 468 0
99 256 404 0
86 -193 -323 0
164 -330 482 0
305 -472 494 0
-196 441 465 0
88 388 488 0
-18 -227 465 0
75 -232 430 0
-151 -166 -402 0
-172 264 342 0
159 -356 -388 0
129 -296 -402 0
-90 379 -415 0
-102 336 463 0
94 296 -327 0
178 -317 -483 0
-348 -355 -466 0
27 -300 385 0
99 392 -464 0
44 114 -212 0
-125 331 -480 0
143 275 -451 0
-44 -123 427 0
132 254 -360 0
283 328 482 0
13 -36 325 0
-42 296 306 0
-23 478 -487 0
8 -107 337 0
-53 -55 -184 0
-64 -368 -412 0
-7 74 338 0
77 242 -261 0
-21 83 -373 0
255 -457 494 0
51 -212 -287 0
-19 -56 229 0
283 472 492 0
-68 -268 447 0
27 135 -251 0
71 -318 -395 0
-14 317 466 0
-28 241 262 0
-80 -155 382 0
76 -144 -232 0
-65 213 382 0
-125 157 -377 0
-62 191 387 0
106 -212 340 0
285 -399 481 0
-92 -220 380 0
-79 328 352 0
293 -328 -420 0
-8 -58 -381 0
-154 215 -390 0
168 -278 -456 0
-296 -313 -375 0
-334 -343 348 0
145 317 -450 0
106 -401 416 0
104 -355 457 0
-339 -376 -484 0
-157 227 -365 0
69 -357 -462 0
-38 -74 -196 0
-47 301 475 0
330 427 -443 0
-18 61 191 0
219 293 -455 0
-259 -320 -450 0
-47 49 -367 0
113 -161 -175 0
-189 -207 462 0
220 -354 428 0
16 298 345 0
-245 380 -386 0
-27 -307 -349 0
101 258 -360 0
208 236 454 0
35 -177 498 0
96 159 -393 0
-335 -413 -458 0
-171 -197 -398 0
-18 -125 150 0
-306 364 -443 0
70 -287 -304 0
218 -317 -391 0
-115 -143 -396 0
161 -234 274 0
-200 388 -495 0
219 314 388 0
-206 -362 470 0
-431 -473 474 0
-59 101 -455 0
44 164 -476 0
-170 -214 361 0
143 -193 -194 0
216 312 -487 0
-6 -102 -295 0
-328 -387 452 0
198 -417 -424 0
125 -255 -472 0
-86 -95 123 0
281 -337 -420 0
182 -442 474 0
-125 205 -230 0
49 253 400 0
-3 182 -307 0
-5 272 -491 0
-5 179 -485 0
-409 -415 427 0
5 -327 -412 0
-1 377 -411 0
-16 69 268 0
18 226 -260 0
-114 -251 -323 0
47 152 -376 0
-119 -241 285 0
-148 -152 -418 0
-13 -361 500 0
139 -153 -494 0
29 158 -418 0
-197 -378 -416 0
16 -150 -202 0
-102 -337 375 0
-38 -210 409 0
-66 92 414 0
-117 -407 461 0
-41 214 -267 0
-229 -331 -449 0
-149 357 441 0
-11 165 291 0
200 -318 419 0
251 265 328 0
316 -390 493 0
105 148 -232 0
30 145 -206 0
2 119 445 0
-93 -282 377 0
211 -272 306 0
161 -417 446 0
-151 -280 361 0
29 426 500 0
220 281 483 0
-158 -186 418 0
-301 392 -452 0
21 -474 478 0
-60 -133 182 0
63 223 269 0
-177 298 320 0
-218 -228 297 0
-60 -236 440 0
115 209 233 0
-97 -192 424 0
-92 -457 -480 0
61 94 -192 0
9 22 -380 0
71 155 381 0
-6 348 448 0
-209 329 402 0
-165 348 410 0
-24 277 397 0
183 -330 345 0
-53 354 -359 0
-240 -296 433 0
-180 -269 485 0
-154 352 -487 0
251 354 379 0
1 76 291 0
22 433 470 0
-386 -422 488 0
53 101 440 0
-108 217 -345 0
167 -259 376 0
-138 410 -444 0
-38 146 309 0
-27 99 195 0
-85 -207 379 0
-42 -319 -361 0
265 -379 494 0
-18 174 439 0
-169 -252 492 0
47 -77 419 0
-111 251 -366 0
107 -208 -441 0
-128 298 -350 0
39 142 192 0
111 429 475 0
-41 111 159 0
-87 -130 487 0
-31 190 -371 0
287 301 391 0
-71 81 -481 0
179 323 -388 0
247 -382 -481 0
-172 -207 -485 0
184 306 494 0
-60 80 271 0
130 199 322 0
118 146 311 0
169 -337 409 0
144 -288 -390 0
69 145 -467 0
-105 152 -281 0
1 -186 -403 0
-2 -163 -289 0
-160 -246 356 0
212 -419 483 0
182 206 -444 0
56 100 -310 0
51 136 -259 0
153 230 -498 0
98 149 274 0
-305 -341 391 0
-34 -123 376 0
-190 -315 -409 0
-5 43 -490 0
63 -204 391 0
85 243 465 0
-6 -152 -216 0
323 430 -480 0
-185 -284 345 0
-51 -159 420 0
138 216 -262 0
-51 210 -249 0
86 110 306 0
-54 222 313 0
31 237 -357 0
75 -103 -324 0
-18 351 -494 0
80 146 -306 0
212 -349 -380 0
-43 -198 -268 0
170 233 382 0
194 347 486 0
-92 -189 -256 0
103 -162 -454 0
21 375 -398 0
38 143 289 0
338 -390 -394 0
39 -220 424 0
53 163 445 0
-15 -107 207 0
141 -179 -331 0
-171 249 -305 0
91 162 378 0
-59 456 -468 0
-110 -260 -475 0
284 386 -451 0
65 -434 453 0
8 327 -399 0
332 369 -384 0
333 438 -464 0
75 -323 -431 0
-91 161 -202 0
-68 382 444 0
18 230 487 0
21 328 468 0
113 154 416 0
-82 185 487 0
27 279 489 0
-76 210 -259 0
-166 326 403 0
-150 169 -499 0
-323 -417 489 0
69 71 -191 0
272 382 436 0
163 271 -497 0
273 389 487 0
156 -228 448 0
338 -458 466 0
69 146 -399 0
16 -66 -214 0
-218 -225 -228 0
-137 159 264 0
104 -176 266 0
-274 353 -435 0
121 -202 -430 0
-210 -334 341 0
-156 276 -373 0
109 -254 263 0
164 -198 -257 0
70 429 -483 0
-113 -233 -384 0
-79 -347 -414 0
-214 360 -449 0
-444 -474 493 0
-278 343 -363 0
37 319 453 0
-135 147 -389 0
246 -310 -487 0
-240 -253 342 0
158 -403 414 0
17 241 337 0
69 -365 -428 0
-153 208 347 0
-54 -347 -395 0
111 -338 451 0
264 330 365 0
356 -402 -466 0
60 79 -96 0
-151 -354 448 0
37 -371 -390 0
-62 210 377 0
-7 352 -387 0
-275 366 -493 0
-312 389 409 0
61 -257 -387 0
-62 -116 231 0
-272 -334 390 0
99 -152 373 0
53 -246 271 0
268 441 -495 0
315 -390 399 0
7 -281 452 0
-47 347 359 0
244 295 -482 0
-2 -194 -478 0
-138 233 -284 0
-95 -291 -385 0
-39 327 -347 0
-162 -175 -374 0
-91 384 -495 0
-144 408 -439 0
56 305 469 0
-29 -118 -214 0
43 -115 253 0
-27 -209 362 0
195 -225 329 0
-110 -265 -480 0
20 -258 -493 0
64 99 183 0
149 162 271 0
275 301 416 0
-166 -264 -360 0
190 -196 255 0
-37 -338 -355 0
79 -316 370 0
-25 116 -252 0
89 117 447 0
-242 -365 -399 0
66 -249 -391 0
333 473 480 0
-271 -313 -438 0
264 -311 -388 0
-231 -261 321 0
-153 258 419 0
152 243 -322 0
-68 343 -408 0
-111 131 -308 0
-11 -24 125 0
16 -71 -477 0
-2 -116 -272 0
18 -384 -462 0
133 -281 -455 0
62 93 497 0
-305 365 457 0
164 -397 -443 0
-144 244 -317 0
36 -62 285 0
92 -266 -484 0
14 76 362 0
120 -268 320 0
234 -277 -432 0
-186 481 -498 0
-315 482 488 0
-158 -327 395 0
105 -115 -308 0
-35 -183 -232 0
237 238 -296 0
184 -212 497 0
-28 80 231 0
263 363 -454 0
-203 281 417 0
-115 194 -447 0
66 -220 -380 0
198 378 -448 0
5 265 -272 0
-150 455 495 0
317 -385 -402 0
-214 239 -317 0
-151 -188 444 0
51 -194 429 0
53 -319 -322 0
-30 160 -378 0
158 -168 449 0
-84 -272 336 0
-88 334 340 0
204 221 -347 0
97 -213 -500 0
72 -346 -418 0
175 399 442 0
56 76 429 0
-57 -231 456 0
159 -183 387 0
-3 62 460 0
46 321 406 0
342 -447 -479 0
166 -244 -421 0
-42 -153 293 0
152 362 495 0
-208 389 -440 0
25 -309 360 0
-116 -143 -243 0
-85 103 -129 0
24 -207 -289 0
23 207 -417 0
95 234 -344 0
-13 376 475 0
241 -260 -298 0
70 207 395 0
-59 -64 -263 0
-6 -197 276 0
352 452 -480 0
-156 261 423 0
296 380 -493 0
69 216 -400 0
341 412 -497 0
301 302 -324 0
-90 315 411 0
191 -393 -399 0
-76 109 -236 0
-165 -293 -385 0
-35 251 -401 0
31 115 411 0
-143 149 -211 0
189 277 -411 0
245 -350 459 0
4 57 90 0
-75 393 489 0
-41 -167 -275 0
-168 288 499 0
92 98 231 0
-179 388 -483 0
-130 -152 -483 0
253 -288 418 0
-241 -356 381 0
-48 -132 -360 0
-6 55 -130 0
-40 -122 -389 0
138 215 -308 0
-41 -70 380 0
45 -59 228 0
115 -324 499 0
-85 149 -253 0
-6 -42 404 0
43 -111 -498 0
234 355 488 0
-38 54 59 0
221 -232 310 0
184 -205 431 0
-230 -231 494 0
-134 296 -373 0
19 -152 459 0
29 224 -399 0
14 221 -416 0
-123 -219 452 0
-163 274 -421 0
46 286 429 0
-4 138 295 0
91 -132 -323 0
-47 114 -443 0
-186 361 -456 0
-148 -208 -372 0
-24 -47 209 0
-76 -96 258 0
-221 361 -469 0
320 -321 -339 0
-214 -261 -406 0
-241 -396 458 0
114 -180 373 0
-9 -131 -211 0
126 208 -311 0
-99 -172 -208 0
-52 240 -266 0
113 -338 -344 0
-193 -336 -359 0
290 389 -444 0
14 -239 -395 0
190 -243 334 0
63 -253 322 0
53 366 -464 0
84 -312 366 0
-76 -137 -439 0
85 -108 -261 0
-61 128 -422 0
-146 -271 321 0
-8 -297 -354 0
243 344 -467 0
-120 215 -440 0
84 -155 484 0
308 311 359 0
-165 208 -402 0
-101 115 -452 0
-71 -206 -334 0
-285 439 -440 0
19 78 -157 0
-81 320 493 0
-56 -273 407 0
13 193 304 0
-305 413 -493 0
-95 -234 257 0
210 -234 -444 0
62 82 240 0
-109 -243 435 0
303 422 -461 0
-85 162 -293 0
4 -197 -346 0
100 390 -434 0
110 148 422 0
-85 334 396 0
27 66 392 0
-112 205 -227 0
224 319 -416 0
205 255 -422 0
-116 -449 487 0
-182 279 -455 0
-253 -336 429 0
-58 165 -182 0
40 -277 332 0
-106 162 330 0
-36 -208 226 0
-242 352 -497 0
-26 305 448 0
-227 255 349 0
-401 -446 -452 0
177 203 389 0
26 80 -185 0
-290 315 365 0
332 457 -484 0
114 193 255 0
365 -378 -498 0
-33 -260 -378 0
-11 -99 173 0
77 436 456 0
-94 -190 -475 0
129 -347 -485 0
-28 -312 -395 0
-271 458 -467 0
-149 -222 -465 0
81 -189 378 0
-216 296 456 0
39 105 -326 0
-59 -199 -439 0
133 -154 247 0
-77 339 404 0
20 121 -377 0
-114 -350 -460 0
-164 170 408 0
-3 -36 301 0
160 -314 -442 0
-178 251 453 0
17 323 -405 0
-123 134 -461 0
-2 -287 301 0
197 -253 424 0
-297 -357 393 0
202 -273 -352 0
27 40 369 0
109 168 -290 0
-31 -70 -128 0
-50 118 190 0
68 453 -467 0
22 168 -335 0
-193 414 -482 0
176 361 -484 0
-272 273 -353 0
-152 387 411 0
296 -323 -365 0
119 266 -464 0
-164 -221 291 0
-92 398 466 0
139 183 299 0
152 -223 -277 0
200 -246 415 0
-92 125 -177 0
-193 259 -393 0
-23 67 410 0
69 -475 489 0
128 -257 392 0
-249 354 492 0
142 387 425 0
159 -270 473 0
-132 308 -357 0
117 -166 -299 0
229 -443 493 0
63 134 498 0
145 160 162 0
156 216 219 0
175 -208 299 0
98 425 480 0
-98 168 299 0
202 274 -367 0
117 120 -391 0
-70 -336 439 0
356 397 452 0
-35 -338 -357 0
210 276 294 0
-104 210 -237 0
-11 -69 207 0
126 -159 -203 0
54 -251 276 0
69 74 410 0
168 278 -371 0
279 333 404 0
-150 216 -359 0
5 -423 449 0
-50 73 357 0
95 -309 -406 0
-3 -74 138 0
71 -225 463 0
-26 201 240 0
242 -260 -473 0
42 193 434 0
-185 218 373 0
27 87 118 0
-54 158 444 0
-121 142 239 0
196 -276 374 0
-116 303 396 0
63 166 427 0
132 140 -375 0
-16 -21 245 0
82 258 -444 0
-408 -423 435 0
-142 -157 246 0
-114 -263 296 0
-46 105 -121 0
245 343 369 0
32 -63 179 0
-338 340 425 0
-8 178 -431 0
-53 -95 403 0
-138 -308 -387 0
8 -231 -322 0
178 -212 426 0
143 207 -413 0
-153 -286 419 0
-194 304 -441 0
-294 -398 -446 0
219 365 -460 0
-19 35 83 0
-379 -426 -431 0
-67 156 471 0
-54 190 -307 0
-88 265 423 0
-19 263 -426 0
-130 218 477 0
31 48 -223 0
290 311 400 0
8 -70 384 0
-66 -307 -357 0
17 -223 379 0
248 -390 406 0
-42 -251 -460 0
-191 -285 479 0
299 -419 444 0
306 337 -451 0
-203 215 -360 0
-104 179 221 0
-161 331 -409 0
-222 387 -492 0
-68 -134 -275 0
-98 150 432 0
69 376 -440 0
-214 -217 -362 0
-9 -151 412 0
-230 -466 475 0
-167 370 444 0
129 326 -467 0
-229 334 354 0
-31 -77 -193 0
91 93 -157 0
-108 -235 281 0
-269 -376 -472 0
-24 199 -240 0
125 -311 -332 0
-10 -70 -259 0
-57 376 -392 0
-302 431 479 0
-10 -68 -147 0
133 -227 241 0
-128 -203 -263 0
-355 464 -497 0
92 -295 -306 0
-245 330 -478 0
-36 -265 -413 0
20 93 386 0
-143 -344 400 0
28 -271 444 0
61 111 212 0
-48 389 -399 0
132 -366 399 0
49 -165 285 0
168 192 -427 0
95 163 465 0
28 -51 -473 0
35 -84 439 0
120 290 370 0
191 213 -446 0
105 281 -461 0
-112 119 132 0
132 -324 -356 0
370 372 -434 0
100 -227 -317 0
24 125 -464 0
132 -300 -483 0
276 -390 473 0
-265 320 -416 0
-339 -347 -447 0
-121 -243 -287 0
-97 199 -440 0
98 -126 -480 0
-42 -341 -363 0
148 -207 -390 0
72 -165 170 0
93 -117 -229 0
-173 -415 -487 0
-141 -273 -417 0
269 -287 407 0
9 -194 -203 0
-285 393 462 0
5 27 48 0
105 193 329 0
256 272 383 0
93 151 -213 0
5 113 348 0
111 -303 -346 0
-175 -298 -320 0
96 -179 428 0
-228 -348 364 0
-216 -391 -449 0
437 455 459 0
-73 -188 -411 0
167 382 -449 0
-190 199 398 0
-144 262 -466 0
22 -299 366 0
-82 418 -446 0
-147 163 424 0
287 342 -390 0
195 303 -378 0
-69 -220 489 0
-71 128 -373 0
28 -216 -217 0
-9 199 -379 0
15 80 -336 0
29 -227 354 0
77 234 321 0
74 180 296 0
160 -224 -290 0
-124 409 -499 0
9 -258 473 0
-5 217 -475 0
238 403 -463 0
72 216 451 0
-28 64 157 0
-56 -455 -457 0
222 -351 -500 0
-199 -329 -367 0
-122 -224 -466 0
-76 124 -292 0
-214 -318 -387 0
-83 425 -473 0
113 454 -488 0
-286 364 -458 0
-354 361 414 0
-39 -111 304 0
240 358 -500 0
382 -444 -452 0
-154 205 457 0
-33 -176 -332 0
93 -161 -430 0
87 -128 -238 0
231 -392 407 0
-5 -33 -80 0
31 -168 175 0
177 260 414 0
-24 176 -328 0
-235 424 478 0
-99 -214 488 0
-3 45 411 0
-43 450 -468 0
44 -429 434 0
204 394 424 0
157 -225 482 0
-198 -217 459 0
38 79 128 0
334 -383 -489 0
40 -300 -495 0
158 -283 -359 0
98 141 -435 0
45 -194 -311 0
109 207 -456 0
225 271 406 0
93 110 119 0
39 422 -457 0
212 228 -371 0
-43 156 289 0
-193 -323 -418 0
-165 -186 -328 0
263 365 -447 0
95 -212 -385 0
-41 77 248 0
63 291 338 0
128 178 -446 0
99 144 -208 0
50 264 -321 0
103 118 -303 0
-202 -411 471 0
67 279 339 0
239 306 -396 0
233 245 -384 0
-25 189 302 0
15 -169 424 0
-37 89 344 0
-267 272 296 0
-68 114 147 0
-159 -341 -392 0
-91 124 247 0
2 16 78 0
-302 342 475 0
86 295 304 0
123 124 -289 0
-230 252 -395 0
32 -61 82 0
198 -319 -464 0
-210 -223 -312 0
42 270 486 0
164 306 -324 0
-161 -454 -459 0
89 139 -278 0
242 302 489 0
14 -55 460 0
188 -415 -483 0
-124 -160 -234 0
-113 -257 -399 0
-345 -494 -498 0
-36 -68 -478 0
-90 169 405 0
207 274 -396 0
-42 111 -440 0
66 -409 -468 0
-42 -183 187 0
-46 57 427 0
1 -63 470 0
37 -223 -229 0
