c description: Random 3-CNF over 500 variables and 2129 clauses
c generator: CNFgen (0.9.6)
c copyright: (C) 2012-2026 Massimo Lauria <massimo.lauria@uniroma1.it>
c url: https://massimolauria.net/cnfgen
c command line: cnfgen randkcnf 3 500 2129
c
p cnf 500 2129
6 -130 267 0
73 80 291 0
-190 361 -398 0
-124 171 -194 0
21 -400 451 0
-218 377 -449 0
-87 -180 481 0
102 317 -357 0
48 250 308 0
-110 -180 330 0
391 -443 459 0
-239 -375 443 0
-331 -401 -451 0
15 -193 251 0
95 370 -417 0
248 312 -400 0
89 303 492 0
-132 425 -448 0
184 225 -384 0
30 357 -454 0
-14 121 406 0
-152 154 201 0
-56 -80 -152 0
64 -129 291 0
-221 -305 -469 0
207 -269 -320 0
162 -337 443 0
110 -295 -343 0
-93 254 387 0
-94 130 290 0
354 -449 -478 0
6 -252 271 0
-87 170 -473 0
-296 -428 -445 0
109 220 -460 0
265 -341 -491 0
46 -239 361 0
-280 375 488 0
376 396 -406 0
-76 175 -235 0
-43 -57 -141 0
208 -372 -483 0
-53 125 -291 0
46 297 424 0
86 252 314 0
-57 -62 -192 0
6 -309 -423 0
-45 -221 294 0
-148 -196 -466 0
-102 -224 436 0
38 -474 -492 0
73 132 444 0
-53 142 431 0
41 281 482 0
96 -155 323 0
156 -287 -425 0
-34 103 -163 0
87 -318 350 0
280 332 373 0
253 340 -391 0
222 436 467 0
136 297 379 0
63 -260 405 0
113 360 -380 0
-218 -369 -385 0
179 -291 -308 0
-85 228 -363 0
162 252 -497 0
-132 -182 -425 0
-256 -301 -337 0
59 187 338 0
132 -221 416 0
25 -246 354 0
110 211 437 0
210 -362 437 0
-169 287 -499 0
43 -450 460 0
204 -452 463 0
175 271 389 0
-4 -63 -439 0
51 72 121 0
301 -318 -458 0
-48 -162 -239 0
-7 156 451 0
204 210 -223 0
331 -361 -448 0
150 416 436 0
200 219 335 0
-7 125 493 0
-133 -175 -471 0
11 -101 -157 0
-165 -307 441 0
176 -293 -458 0
89 187 -237 0
-228 -283 -310 0
-40 -294 391 0
34 -47 -153 0
-344 -420 -453 0
17 345 469 0
57 260 327 0
53 251 342 0
-212 -247 250 0
72 249 -430 0
-20 290 -336 0
-45 408 -459 0
42 -238 363 0
327 -406 458 0
12 -147 -477 0
20 -76 481 0
115 159 -278 0
100 254 -482 0
-13 -71 490 0
73 -130 -209 0
-106 -260 -263 0
-64 175 -358 0
-34 -369 -396 0
-239 -331 386 0
-41 154 289 0
-344 -379 -424 0
242 -484 493 0
255 421 422 0
139 -397 -420 0
-22 -287 327 0
20 -83 497 0
-43 -170 -420 0
98 -154 244 0
102 162 325 0
-362 -374 -458 0
79 307 326 0
37 87 -170 0
-140 -190 420 0
-298 311 498 0
187 249 478 0
134 -179 -369 0
330 340 411 0
78 -189 483 0
223 330 -378 0
45 342 -378 0
-331 -413 -453 0
136 -158 -313 0
-142 214 -379 0
-94 -213 309 0
292 -339 389 0
-20 -430 -458 0
408 455 457 0
404 -469 -472 0
-81 271 495 0
153 -384 490 0
249 354 412 0
-364 -438 482 0
178 182 292 0
197 -236 -329 0
73 150 -417 0
-56 -495 -496 0
-126 159 -162 0
288 -357 488 0
-236 -285 478 0
75 -309 331 0
27 39 315 0
-210 -256 267 0
-81 -158 -374 0
8 421 431 0
37 334 -341 0
-108 -290 -313 0
-4 266 352 0
7 323 -345 0
209 -383 -397 0
-307 -468 -494 0
167 -269 307 0
267 -336 -450 0
-211 -278 -322 0
7 403 500 0
294 -347 434 0
-159 383 452 0
169 334 -411 0
211 240 -407 0
-52 -116 -252 0
19 148 -283 0
48 -109 -287 0
-226 326 354 0
156 170 403 0
-134 271 -459 0
-207 -214 459 0
-51 343 -431 0
-64 145 373 0
-26 79 109 0
13 -170 -287 0
294 -369 -395 0
-33 36 -392 0
26 -61 -154 0
-191 -317 -388 0
-277 452 -468 0
-206 -397 -495 0
-225 -347 -436 0
69 228 362 0
61 -257 401 0
130 -132 -306 0
-6 84 147 0
14 -105 -478 0
112 -165 -331 0
-37 44 -362 0
-222 353 -403 0
-340 -402 411 0
-93 -136 389 0
-301 -416 -448 0
136 160 393 0
-47 -328 407 0
-379 -435 463 0
-16 60 -365 0
-59 -114 277 0
191 -328 -368 0
127 -205 285 0
-91 129 235 0
132 -325 -429 0
79 279 -416 0
7 180 370 0
-32 -343 446 0
-37 -62 98 0
125 -209 -289 0
-174 -327 -499 0
-45 166 343 0
-131 -305 -387 0
-78 -80 -419 0
-24 45 469 0
-21 -371 -441 0
57 182 -478 0
85 182 -468 0
-205 247 -414 0
269 -281 488 0
107 164 181 0
101 321 385 0
136 -412 -434 0
-50 212 345 0
-106 184 417 0
128 309 -427 0
-66 395 418 0
165 452 481 0
148 264 -419 0
-6 289 350 0
-152 208 -295 0
114 -252 -367 0
71 -180 -335 0
54 470 -476 0
269 -354 -428 0
137 -250 363 0
-44 -248 -389 0
-76 -470 489 0
163 -227 255 0
277 -336 445 0
33 -283 352 0
37 -129 387 0
-151 228 -364 0
-23 98 -191 0
16 -103 170 0
-95 -267 -380 0
-80 -133 493 0
56 289 380 0
1 338 426 0
164 252 -415 0
-110 -438 -469 0
-239 -357 -461 0
233 -244 291 0
23 -417 437 0
165 -263 -367 0
-26 71 129 0
228 284 411 0
19 -399 -467 0
119 244 391 0
-94 -120 -400 0
128 405 473 0
81 -422 457 0
-194 -338 458 0
-257 434 -488 0
102 381 -414 0
132 -172 467 0
65 -96 411 0
-151 187 493 0
-162 415 443 0
-142 202 -460 0
-351 -377 -443 0
-26 -114 475 0
183 -232 -277 0
47 -93 225 0
-149 -198 -216 0
219 236 496 0
94 481 500 0
202 241 307 0
-62 70 -318 0
-114 -465 493 0
-189 -273 -305 0
-194 215 303 0
-153 -338 461 0
138 -270 -344 0
38 -245 -459 0
175 -289 374 0
98 -367 458 0
-210 294 392 0
109 217 -456 0
-259 266 329 0
-296 411 -466 0
89 367 -418 0
17 -155 -356 0
39 -302 -460 0
-18 -110 401 0
-343 -390 427 0
30 -68 435 0
-96 227 423 0
145 -147 -449 0
312 -368 -434 0
-54 136 355 0
212 302 -320 0
82 -127 190 0
35 77 264 0
16 59 -298 0
223 282 -336 0
58 -106 -189 0
194 319 -347 0
250 -380 474 0
-59 452 -498 0
-26 53 -238 0
-142 177 182 0
1 -181 -498 0
-105 148 -254 0
15 134 -397 0
207 -342 474 0
154 222 -487 0
83 -376 497 0
182 -351 393 0
3 208 379 0
61 307 338 0
25 -166 -428 0
23 218 225 0
8 120 -368 0
-95 -216 342 0
56 309 401 0
-56 -252 359 0
50 -361 379 0
13 -153 390 0
73 -130 418 0
358 373 -387 0
7 262 -486 0
41 -163 267 0
-109 -342 410 0
12 69 347 0
1 -23 151 0
164 188 -479 0
-2 -193 -416 0
61 315 -393 0
-336 -375 391 0
63 227 411 0
12 -60 480 0
20 -237 317 0
96 173 272 0
-122 147 185 0
-105 -267 371 0
263 -299 -472 0
199 470 499 0
35 193 -442 0
-213 335 336 0
60 -115 -417 0
-126 -206 -498 0
6 15 -166 0
385 427 478 0
-155 268 274 0
11 323 -423 0
73 148 -312 0
-69 -217 -413 0
61 331 -367 0
-262 274 326 0
-277 -388 -424 0
108 -140 -237 0
263 -369 379 0
-311 -384 427 0
388 -420 491 0
-21 74 161 0
-264 375 -416 0
196 -291 483 0
-70 -163 240 0
434 -448 483 0
9 -74 -469 0
-264 318 488 0
-438 449 -455 0
79 -191 -232 0
-99 -129 -425 0
-10 -216 454 0
83 -208 -408 0
-88 90 363 0
-227 236 -242 0
99 -113 195 0
98 -144 -210 0
-142 262 -368 0
-113 -220 401 0
-191 216 399 0
-197 307 -493 0
73 -147 376 0
135 303 429 0
269 309 -357 0
-289 328 -448 0
-28 -42 -451 0
52 -342 -425 0
265 -302 410 0
-81 138 403 0
-21 -238 273 0
258 -333 414 0
-64 -133 430 0
246 247 -336 0
56 -431 449 0
-418 426 -455 0
-160 -456 -492 0
-19 -396 418 0
255 -316 -496 0
-43 -147 318 0
-150 253 339 0
-89 -303 478 0
218 -228 -454 0
-109 366 -428 0
413 433 -492 0
-95 -145 -348 0
84 -240 -280 0
-279 -301 -358 0
29 -305 450 0
195 -317 350 0
107 184 -299 0
-183 -241 456 0
308 -343 -473 0
-131 150 313 0
-194 -316 -442 0
-72 -255 -347 0
-222 343 351 0
-203 292 -316 0
103 133 368 0
-23 -118 393 0
103 -302 -494 0
-39 51 -119 0
-183 -184 -407 0
-23 39 -273 0
-32 305 -488 0
5 -284 330 0
5 -110 -143 0
35 -63 -333 0
168 277 -458 0
91 -266 427 0
19 -125 282 0
-129 151 -297 0
60 -126 -160 0
13 99 320 0
89 156 178 0
-98 342 -426 0
13 255 352 0
-218 219 347 0
18 -117 -256 0
-162 -411 438 0
177 226 -439 0
-17 -60 -489 0
-124 139 -423 0
-6 -151 344 0
68 -261 -438 0
176 -357 377 0
-131 -212 -454 0
20 -221 442 0
85 -91 -175 0
-129 190 -353 0
129 411 452 0
-391 399 499 0
-47 -63 -405 0
285 -339 384 0
-2 454 -479 0
-171 230 -238 0
-19 -73 410 0
59 -239 384 0
81 132 -275 0
153 265 -371 0
-61 340 -347 0
170 -242 409 0
143 -229 -265 0
139 -212 -323 0
150 -158 -226 0
-78 -154 -408 0
-186 436 452 0
238 -280 474 0
95 -268 420 0
-48 -484 489 0
180 436 -464 0
-164 370 457 0
111 -301 -404 0
30 -286 -342 0
-159 416 -473 0
69 221 -412 0
21 -154 -211 0
48 -72 427 0
135 -377 439 0
70 -189 196 0
-27 -392 -434 0
56 58 -73 0
-147 -304 -431 0
210 -379 414 0
30 261 409 0
-53 -244 455 0
26 -118 -254 0
217 -220 -303 0
-15 -121 -266 0
209 -434 466 0
-20 103 -206 0
181 213 -373 0
-153 -265 404 0
167 -460 490 0
-84 251 -442 0
277 424 -461 0
135 257 -285 0
80 289 432 0
166 -343 461 0
39 48 -131 0
113 -184 -385 0
-85 201 499 0
-25 -255 333 0
34 220 388 0
48 -51 -365 0
60 -125 199 0
-116 194 343 0
376 -450 -496 0
144 -406 452 0
75 170 254 0
-223 -319 -489 0
49 -110 369 0
9 -289 377 0
-59 -123 189 0
-228 -231 349 0
16 -68 -372 0
22 -357 387 0
15 -246 295 0
4 -192 283 0
-211 -250 -382 0
-81 -162 -466 0
-293 -476 490 0
135 200 270 0
-92 277 433 0
214 267 -477 0
11 -398 -497 0
-173 -270 -362 0
192 251 311 0
102 184 434 0
55 -104 417 0
33 -151 422 0
-216 363 441 0
-193 -471 -489 0
43 336 500 0
71 142 441 0
-86 102 -253 0
-71 -123 432 0
-44 -181 -452 0
172 -247 -324 0
-278 335 484 0
-44 -224 -396 0
136 210 215 0
-74 242 -426 0
128 174 477 0
-181 197 -353 0
32 -157 297 0
63 -223 236 0
388 -439 496 0
93 -168 433 0
210 311 -383 0
221 370 -482 0
-56 -69 -434 0
-170 -317 495 0
-40 -62 73 0
165 -306 323 0
239 -354 -432 0
-88 -200 240 0
-11 248 474 0
140 347 349 0
-36 -112 -420 0
160 -366 -482 0
-32 208 -337 0
318 416 437 0
132 -439 -490 0
-32 -95 -365 0
-390 436 458 0
-295 -297 464 0
-31 62 -146 0
-60 432 -463 0
-27 74 -361 0
5 -231 391 0
-173 408 -499 0
14 269 -382 0
-302 -405 -490 0
1 156 -192 0
-117 -168 -431 0
-122 -426 499 0
52 -427 -459 0
-190 -288 499 0
-7 -235 -350 0
-46 299 -424 0
39 114 386 0
-271 327 492 0
18 221 -416 0
-80 89 -366 0
-64 -82 362 0
-224 269 -385 0
233 239 337 0
17 207 408 0
-66 -143 287 0
89 -217 -343 0
-195 261 -274 0
-42 -89 145 0
19 -48 155 0
-83 241 -453 0
24 -224 462 0
69 -272 290 0
-42 -45 430 0
66 242 366 0
182 352 388 0
-343 -359 -394 0
-8 192 284 0
-105 -196 328 0
-30 327 -411 0
-198 -412 450 0
46 -173 -477 0
-145 -389 -422 0
-83 266 -315 0
-12 308 438 0
96 321 -418 0
2 -92 412 0
334 435 461 0
-96 -364 -409 0
65 192 -466 0
-64 341 -398 0
-259 392 445 0
130 183 -471 0
52 251 -367 0
214 -387 427 0
-341 -383 -470 0
-171 188 -326 0
-60 147 411 0
138 -174 191 0
83 313 -339 0
376 403 -425 0
-27 -201 370 0
6 66 -210 0
237 264 -468 0
-191 357 -499 0
-7 236 -500 0
-144 -164 439 0
96 -297 -323 0
-181 280 -298 0
-100 163 216 0
-160 -264 419 0
37 136 -281 0
44 270 438 0
189 -231 -347 0
-10 -116 182 0
120 168 -439 0
132 -237 284 0
-133 -196 -468 0
-105 181 493 0
-2 119 472 0
-4 21 -423 0
-304 351 -383 0
-2 -19 91 0
176 255 -457 0
-191 367 414 0
-25 -302 -398 0
236 261 -268 0
198 -394 495 0
13 108 231 0
-88 185 222 0
67 355 400 0
-207 241 429 0
-79 151 -328 0
-102 350 386 0
-128 275 -316 0
-51 -263 405 0
308 -348 -397 0
319 -328 -345 0
-205 295 -303 0
85 -261 420 0
24 -325 -377 0
-341 382 421 0
-119 -126 -384 0
-44 -47 -253 0
154 360 -485 0
-155 182 -183 0
-44 -365 -378 0
-41 -143 154 0
305 -309 -349 0
18 220 -298 0
-76 -108 -158 0
-109 328 436 0
-228 261 -429 0
-165 358 432 0
50 -180 493 0
64 395 435 0
-88 -179 448 0
197 223 287 0
-11 160 462 0
-134 -341 473 0
-164 173 -390 0
180 194 220 0
305 424 -457 0
303 -317 427 0
-2 93 279 0
86 -155 -214 0
89 -349 381 0
-105 -205 206 0
75 -357 495 0
81 -408 491 0
-63 -208 -389 0
-20 185 -278 0
182 -232 341 0
-90 225 400 0
122 -300 494 0
-69 85 -122 0
-111 113 223 0
35 -146 -301 0
-240 -368 -389 0
-59 -258 311 0
-57 -118 -422 0
-150 -358 376 0
170 343 345 0
8 -77 -294 0
86 340 362 0
-11 -56 109 0
-65 219 -402 0
-95 307 -322 0
236 -298 359 0
222 -443 -493 0
-81 244 500 0
-59 205 498 0
184 343 416 0
-179 237 385 0
-173 -186 -323 0
143 178 185 0
-124 459 -473 0
261 -396 497 0
-16 -96 -201 0
172 -308 417 0
-56 -252 283 0
90 148 -204 0
206 358 -499 0
188 -248 -356 0
106 373 -478 0
197 221 -435 0
-155 239 286 0
12 -368 -370 0
138 142 -280 0
-55 -168 349 0
94 -97 -128 0
102 249 -252 0
-98 -103 241 0
-268 364 -444 0
47 -173 -189 0
-143 301 306 0
179 368 -473 0
-120 -179 418 0
-201 226 -229 0
-152 -331 -423 0
-261 364 -482 0
383 432 -472 0
76 316 -392 0
-87 274 -493 0
14 78 340 0
-202 219 -357 0
-146 253 -368 0
-94 276 -300 0
-22 133 -217 0
303 -397 411 0
-229 -423 -490 0
-33 119 217 0
88 -339 461 0
-221 -337 -426 0
-13 -199 320 0
-40 -197 476 0
128 -213 468 0
366 -461 -481 0
81 357 404 0
-132 140 363 0
-33 -197 -396 0
94 117 -450 0
204 -217 -250 0
207 -313 -358 0
60 -216 -239 0
-123 -404 -407 0
-145 -155 -467 0
-90 -449 -473 0
-110 -129 231 0
79 169 302 0
-297 -365 488 0
350 443 -460 0
-97 -384 448 0
-2 184 -304 0
-86 -279 -293 0
244 -250 440 0
100 236 497 0
-41 -283 316 0
-227 -299 -483 0
-37 -101 257 0
-101 -154 -168 0
40 -380 408 0
127 -439 -479 0
227 322 -500 0
-342 -353 -429 0
-125 195 291 0
168 -170 -307 0
-76 -87 -153 0
108 378 445 0
-6 -25 147 0
168 -270 414 0
254 -286 -345 0
-45 -484 -498 0
-147 -225 251 0
176 363 385 0
36 -109 464 0
256 291 -403 0
-42 120 -499 0
-72 -80 87 0
-115 -121 300 0
-147 -164 -480 0
123 132 -467 0
94 192 -433 0
-64 312 -390 0
48 -146 196 0
62 -226 275 0
183 197 380 0
210 399 -420 0
-150 172 495 0
-12 273 385 0
224 -295 413 0
-211 440 491 0
-107 142 358 0
253 423 -478 0
-51 172 -257 0
-232 235 -433 0
-16 -123 232 0
112 158 315 0
76 169 -266 0
122 -337 422 0
124 -129 239 0
133 243 373 0
-87 240 -296 0
-303 -378 438 0
69 -155 487 0
-273 -350 -426 0
-46 -400 423 0
244 -332 -444 0
12 -221 424 0
137 144 315 0
-86 -335 -349 0
-249 320 -337 0
180 -220 433 0
-248 -317 -497 0
180 339 463 0
321 -352 478 0
45 -161 -195 0
82 124 -213 0
319 -337 497 0
146 202 479 0
-196 247 -257 0
-55 -109 340 0
-8 -391 432 0
274 346 353 0
89 145 281 0
-19 403 -471 0
5 61 -159 0
-278 313 -349 0
137 203 -292 0
-52 269 -457 0
13 149 248 0
-214 -357 483 0
-219 260 335 0
345 -399 412 0
-128 133 443 0
-248 -338 -421 0
44 49 237 0
-169 314 422 0
-2 21 -235 0
33 -105 171 0
-42 -281 -475 0
-177 -272 -292 0
-162 -200 -475 0
-245 367 394 0
124 313 -333 0
41 101 392 0
-108 236 372 0
-96 255 287 0
65 -114 220 0
-26 -280 -438 0
35 -270 -486 0
-121 271 274 0
-105 225 444 0
43 -294 469 0
-337 -352 -355 0
-84 204 -480 0
97 -202 414 0
368 380 388 0
-147 -440 -468 0
-69 252 262 0
-102 -182 409 0
23 -327 414 0
39 193 -320 0
86 116 173 0
-28 50 108 0
232 260 431 0
-114 203 236 0
69 -326 421 0
-175 234 -391 0
183 -257 -306 0
183 -208 310 0
-157 -325 -338 0
20 270 -494 0
166 -345 -483 0
-221 248 -495 0
-413 -422 442 0
-263 -492 498 0
33 -104 276 0
-308 357 405 0
42 -342 496 0
33 -306 -427 0
-132 477 482 0
359 376 446 0
-119 -305 -467 0
-135 254 345 0
-406 -442 455 0
-55 -177 424 0
36 216 469 0
-33 -54 495 0
35 119 -198 0
111 -220 -385 0
28 445 -492 0
143 -165 -378 0
-3 -273 -392 0
278 305 373 0
38 62 100 0
-128 -300 490 0
-274 -408 492 0
-377 417 432 0
15 -164 -293 0
-183 325 -329 0
-221 -314 471 0
-65 151 -285 0
10 341 -492 0
168 -210 -317 0
-242 -353 476 0
-209 228 -415 0
-10 30 430 0
-14 -118 -456 0
23 -233 -364 0
75 165 -216 0
-158 184 375 0
-81 -196 352 0
14 -139 386 0
39 42 478 0
27 399 458 0
62 -331 -365 0
-225 -442 -490 0
39 348 388 0
-264 290 -342 0
-26 -429 476 0
-191 326 378 0
86 101 -359 0
17 346 -455 0
-30 111 -489 0
-98 239 -465 0
-143 -208 -342 0
-40 41 58 0
106 -177 237 0
98 191 -492 0
-88 264 -498 0
155 280 -434 0
67 69 97 0
-6 359 -448 0
-56 -288 365 0
-121 217 443 0
37 -245 -283 0
60 -145 -373 0
-365 398 -469 0
164 308 -328 0
-24 -201 272 0
-169 -437 448 0
-307 -321 -339 0
53 -340 -406 0
-56 -251 281 0
27 -115 -395 0
171 198 -253 0
-39 156 -288 0
160 -263 -453 0
348 -381 464 0
177 -356 437 0
-209 260 317 0
67 178 486 0
-146 -225 -302 0
84 -119 -315 0
216 -246 391 0
182 -234 -447 0
38 -234 -328 0
-5 53 467 0
-223 -287 -339 0
29 145 -479 0
-164 -204 -251 0
59 -135 256 0
-37 54 427 0
-47 -298 311 0
12 -125 -295 0
34 -284 -361 0
-286 298 321 0
169 303 -478 0
30 194 267 0
-127 -275 -387 0
-79 -320 -409 0
60 -180 359 0
304 -314 384 0
-271 391 499 0
-130 -345 -404 0
-137 267 269 0
154 201 310 0
-112 136 307 0
62 -327 -362 0
-77 -262 307 0
63 381 409 0
-104 296 -417 0
-148 271 408 0
120 176 -474 0
-230 492 -499 0
-122 162 -176 0
-52 356 -491 0
-390 -459 461 0
-188 -230 475 0
-197 -302 365 0
-136 -192 -468 0
201 -468 494 0
129 -219 499 0
88 246 -432 0
-33 -142 -371 0
-296 391 -470 0
161 338 -351 0
-13 97 333 0
170 -179 -489 0
49 -232 348 0
-58 -179 370 0
-77 -248 -369 0
201 -331 -461 0
417 -431 449 0
-276 -290 -344 0
-278 291 396 0
-281 -332 -471 0
134 226 278 0
-151 274 -291 0
38 360 492 0
-139 -363 -417 0
4 -212 352 0
-3 230 231 0
265 -327 -440 0
-100 197 467 0
128 -207 -323 0
-36 -132 476 0
-155 215 -469 0
171 367 485 0
422 -432 -487 0
-9 164 460 0
17 -183 423 0
-293 -357 -381 0
-91 318 -419 0
-178 233 337 0
-21 -221 -256 0
-2 84 266 0
-340 -393 462 0
-137 247 500 0
-352 -394 -488 0
104 -325 338 0
236 -360 377 0
196 -246 324 0
-197 199 -369 0
247 259 -294 0
43 272 283 0
46 -193 -200 0
124 317 -444 0
53 156 157 0
-240 -283 -284 0
-24 104 496 0
54 365 -490 0
-120 154 -440 0
-182 -300 330 0
-39 271 499 0
-138 -156 -416 0
-288 326 -496 0
76 415 473 0
-96 102 151 0
-233 -353 417 0
221 277 -399 0
79 -384 418 0
213 -275 -409 0
386 -393 -495 0
260 -288 -320 0
20 -279 -438 0
-266 288 -454 0
1 90 491 0
-111 -432 446 0
-122 -151 333 0
204 323 -375 0
-131 -237 259 0
7 -179 -303 0
-80 -200 -406 0
-22 415 441 0
351 384 386 0
131 192 419 0
-168 186 195 0
-101 146 383 0
-180 -445 472 0
-256 337 384 0
208 240 356 0
-371 -408 -439 0
102 -412 -477 0
-9 -395 -437 0
297 447 -491 0
108 -317 402 0
77 -287 466 0
-148 425 -452 0
56 297 315 0
132 166 401 0
43 77 -473 0
115 -157 -303 0
134 -147 470 0
-81 368 -470 0
-12 204 298 0
59 -325 467 0
35 36 -100 0
-86 161 336 0
-44 -457 -499 0
100 277 -314 0
238 332 -452 0
-4 -150 155 0
-209 -354 -377 0
11 -16 -74 0
-203 -229 -499 0
-161 193 -354 0
-134 298 385 0
-239 336 -485 0
213 -233 -274 0
-64 -268 -294 0
-187 -204 -263 0
-234 287 304 0
-135 150 -436 0
211 -285 -444 0
-264 309 -479 0
-134 143 286 0
87 106 146 0
190 -234 310 0
-3 207 -277 0
-22 -226 382 0
-112 308 -457 0
158 -191 -275 0
159 260 462 0
108 214 -441 0
34 46 -354 0
209 329 480 0
-35 37 -354 0
30 -195 -367 0
46 412 454 0
141 233 -308 0
147 -234 -358 0
-155 230 -390 0
22 -152 -299 0
29 46 428 0
-123 -424 -469 0
128 270 454 0
-187 -209 402 0
-103 -105 367 0
-21 -101 364 0
250 339 368 0
149 -210 -486 0
153 -233 -247 0
123 -236 -405 0
38 -49 -491 0
55 -152 -467 0
-152 205 461 0
8 180 -408 0
166 -406 498 0
119 467 489 0
198 454 -467 0
54 156 384 0
55 -92 -127 0
-37 -359 487 0
69 -268 277 0
225 407 -499 0
201 -399 -438 0
-353 -461 481 0
251 285 -402 0
244 393 -434 0
50 -186 319 0
-59 103 107 0
86 -261 -451 0
176 -308 441 0
327 -342 371 0
-200 234 288 0
-67 268 -398 0
-51 -151 361 0
-62 -112 -146 0
-77 -122 -228 0
-27 -233 -347 0
103 334 -440 0
-235 373 -462 0
-293 -302 449 0
-6 142 178 0
183 305 -478 0
23 -62 149 0
-1 150 -430 0
23 -72 -107 0
-30 376 -428 0
27 -74 -473 0
66 -267 283 0
-40 -65 -273 0
53 476 489 0
-11 330 -341 0
-168 272 -276 0
117 -359 -481 0
-81 -284 -427 0
202 -211 326 0
183 -333 -481 0
-123 423 497 0
-111 290 462 0
-204 245 -254 0
-20 160 194 0
-53 131 -207 0
24 -67 317 0
-322 326 363 0
105 -229 435 0
155 202 409 0
-342 -440 491 0
-208 -415 -431 0
20 24 -100 0
10 -279 -478 0
57 -209 -468 0
-253 267 -313 0
-73 225 -306 0
-68 194 433 0
136 -353 -450 0
20 147 -183 0
-21 223 229 0
153 154 227 0
-242 -255 320 0
-69 182 -287 0
69 179 -487 0
111 -183 342 0
98 109 -114 0
-125 385 -484 0
243 -438 485 0
117 248 -359 0
89 188 451 0
205 313 358 0
29 280 -369 0
131 -219 492 0
-96 129 489 0
-167 406 491 0
220 296 -419 0
136 -176 -382 0
-25 -43 293 0
-371 416 472 0
-122 -297 -390 0
-37 191 425 0
28 212 325 0
158 -346 -427 0
47 283 336 0
-14 -40 -56 0
253 -299 313 0
-172 307 -344 0
187 -382 -423 0
-318 398 447 0
-108 168 -441 0
-13 -385 -488 0
-29 71 443 0
39 -61 264 0
16 43 107 0
-152 156 190 0
-162 318 476 0
193 207 -352 0
93 197 -247 0
-55 -291 446 0
-298 337 -436 0
81 -249 452 0
172 -372 411 0
-237 294 337 0
84 -147 455 0
17 69 -490 0
55 145 -367 0
198 329 -423 0
-10 -126 -315 0
50 -337 -437 0
170 -185 361 0
42 170 -432 0
6 25 -123 0
-3 357 462 0
-115 162 301 0
-380 -483 -493 0
-212 -223 -480 0
-179 303 469 0
34 -131 -139 0
131 359 -478 0
86 116 -381 0
27 97 435 0
-222 -288 341 0
-84 -463 486 0
23 340 -364 0
-101 159 -252 0
114 -402 -485 0
119 237 -369 0
-190 361 423 0
231 -437 487 0
255 308 -386 0
15 -126 232 0
-38 314 -364 0
11 -183 -262 0
-125 404 483 0
83 -155 -464 0
-33 62 -341 0
-175 -356 -419 0
236 -314 429 0
364 -371 -452 0
326 354 469 0
259 304 -382 0
187 -189 -448 0
-3 -120 -144 0
39 274 439 0
56 67 -299 0
-391 395 475 0
310 337 477 0
408 448 -500 0
-161 -302 439 0
-288 -343 478 0
-54 284 458 0
296 -298 395 0
127 325 -442 0
-239 253 -453 0
224 -230 -357 0
181 415 -420 0
-98 -263 268 0
224 290 442 0
-177 362 -451 0
-30 306 329 0
-20 34 55 0
321 329 -356 0
-210 -440 -476 0
67 -275 304 0
-155 -188 397 0
62 -97 415 0
-118 -314 374 0
108 -177 -433 0
70 -154 -354 0
-95 216 462 0
3 368 472 0
-6 339 -358 0
60 -357 -410 0
10 -13 -308 0
292 353 450 0
-124 395 439 0
141 -211 222 0
-32 221 350 0
-30 437 -490 0
-4 -342 441 0
329 -380 -455 0
-81 82 487 0
63 -237 -292 0
-6 -182 398 0
28 -90 -448 0
97 369 491 0
41 -111 -345 0
67 -360 485 0
23 -216 -425 0
185 -228 376 0
-211 -314 -384 0
47 136 -359 0
-190 -237 425 0
-152 -261 296 0
88 -244 358 0
-125 159 -244 0
-21 79 -350 0
-51 -255 305 0
63 193 318 0
195 -248 -306 0
-28 -33 285 0
160 -170 350 0
119 -213 237 0
246 325 -432 0
-179 -222 -318 0
230 -231 -489 0
-2 177 -494 0
74 -236 -246 0
49 -431 -447 0
-173 -207 -441 0
93 -96 -476 0
185 -417 -472 0
-111 173 -465 0
15 -224 234 0
24 161 337 0
173 -287 491 0
201 -350 454 0
-420 -434 481 0
74 -325 416 0
29 -400 -453 0
-52 56 192 0
-180 337 -460 0
180 244 -329 0
-138 402 472 0
-12 273 -274 0
-17 -234 -342 0
323 378 388 0
49 405 -484 0
117 -201 -342 0
122 -269 398 0
-24 138 408 0
83 -109 463 0
-161 262 497 0
319 459 -491 0
131 -281 417 0
-163 289 -392 0
218 287 -335 0
-270 -412 491 0
-145 252 408 0
311 314 -499 0
-22 129 -449 0
-54 70 389 0
-35 -366 417 0
142 199 -284 0
-194 -417 483 0
140 -339 363 0
-431 454 -472 0
-348 -349 470 0
-211 425 -428 0
-400 -460 499 0
11 -61 109 0
26 -74 -122 0
55 220 414 0
-276 -288 326 0
-8 107 327 0
77 173 495 0
-134 137 184 0
-52 -202 -249 0
-178 189 -443 0
-11 -317 -378 0
29 102 173 0
9 -130 -476 0
121 228 -262 0
-52 133 -375 0
241 308 401 0
141 150 -183 0
100 -225 -430 0
132 -301 -397 0
-39 78 -342 0
-279 329 392 0
207 -376 -435 0
-268 325 -477 0
194 287 -292 0
110 -112 -377 0
92 162 -324 0
-114 -310 451 0
-98 174 198 0
-148 261 294 0
-23 -27 65 0
46 47 -206 0
185 285 355 0
362 -421 455 0
-140 363 -368 0
-187 -305 -366 0
-147 -337 -395 0
-16 -56 -380 0
-114 -367 496 0
-109 150 303 0
-36 177 229 0
31 -57 -397 0
201 252 -494 0
374 -416 434 0
-67 -165 391 0
-297 350 -381 0
-79 154 264 0
-163 351 411 0
-265 -284 408 0
-80 110 341 0
8 -46 172 0
122 144 -154 0
321 391 435 0
30 194 -394 0
131 490 499 0
-322 -332 -461 0
-141 211 275 0
-120 -335 373 0
-194 -247 440 0
21 155 465 0
24 -42 -242 0
185 -245 -386 0
-3 -296 -337 0
-215 -243 -425 0
-133 338 447 0
-126 -344 361 0
38 70 232 0
-101 -481 -497 0
19 -54 -248 0
193 -240 -262 0
-102 196 -486 0
89 155 -162 0
221 -347 -356 0
-10 20 -191 0
282 393 -458 0
246 -326 381 0
-316 471 496 0
-58 185 -356 0
-58 155 274 0
-148 -224 -284 0
164 -412 -419 0
364 -404 494 0
-44 -185 320 0
21 -309 -404 0
-171 -302 323 0
-172 420 -442 0
-275 432 498 0
-28 46 -89 0
25 104 -165 0
213 243 364 0
222 267 -443 0
74 101 363 0
164 -255 430 0
-4 307 324 0
228 -421 495 0
285 -377 -413 0
-9 145 -342 0
172 239 314 0
33 356 -387 0
-34 308 -351 0
12 -139 -151 0
-249 -295 419 0
-17 -77 -269 0
-49 -51 115 0
-227 236 323 0
15 -86 -168 0
-35 81 164 0
395 427 471 0
-207 351 366 0
-29 -317 -378 0
63 418 434 0
-15 -193 -485 0
-10 16 -357 0
230 251 -378 0
160 284 349 0
-313 -417 -451 0
73 108 298 0
344 364 -456 0
230 241 -445 0
-57 -325 -489 0
104 -148 229 0
-230 -308 -397 0
-12 298 -488 0
-222 407 444 0
32 -70 -317 0
-102 253 -382 0
-1 -23 -196 0
43 292 -464 0
-87 -216 -378 0
-95 188 -263 0
36 -373 -463 0
27 -398 489 0
-92 158 472 0
255 -423 462 0
63 317 320 0
-168 -270 456 0
151 277 483 0
159 412 -460 0
99 193 -278 0
-136 239 -279 0
-50 68 -488 0
248 -400 464 0
-109 -226 360 0
-60 -341 394 0
88 -194 -218 0
-61 263 309 0
49 -294 320 0
8 -35 -156 0
-134 -431 494 0
40 -229 391 0
-166 235 -273 0
56 181 459 0
187 -365 -442 0
-45 111 497 0
-81 312 424 0
-294 417 -467 0
206 330 462 0
-234 -373 468 0
-219 234 -382 0
152 -242 -387 0
39 -267 444 0
307 384 490 0
349 -402 -461 0
-95 -411 489 0
-29 470 481 0
125 253 -271 0
49 195 500 0
5 -208 -278 0
-46 -370 417 0
34 152 322 0
-59 209 343 0
-59 -80 103 0
-29 -80 -432 0
-245 298 350 0
-49 156 442 0
-35 -418 -428 0
475 -486 -498 0
-76 -276 278 0
-65 367 -444 0
83 205 -337 0
-80 -100 -297 0
-23 95 -124 0
-229 249 308 0
-88 261 380 0
87 -140 326 0
3 102 -376 0
-87 -318 493 0
8 -292 312 0
-60 -147 254 0
57 -405 425 0
-56 94 250 0
-135 195 300 0
99 -116 -479 0
172 183 446 0
-6 70 -482 0
-86 -203 282 0
245 307 -380 0
-191 251 -348 0
120 386 389 0
-24 87 -336 0
57 344 427 0
137 -149 -495 0
10 34 259 0
-183 -272 -285 0
85 -158 -313 0
103 380 429 0
-239 289 314 0
19 -190 -498 0
-127 -399 -437 0
37 233 292 0
-86 -194 205 0
61 131 -396 0
-25 214 225 0
-59 291 388 0
-124 287 306 0
128 -267 311 0
110 -313 428 0
139 -338 480 0
205 245 -311 0
-120 -134 342 0
-298 300 316 0
-182 312 444 0
21 -223 282 0
117 -282 -413 0
257 -372 477 0
-139 -341 -436 0
-79 -475 -492 0
307 -323 492 0
259 -325 -474 0
88 236 279 0
219 291 398 0
-220 -320 -340 0
159 246 421 0
63 -174 -237 0
-77 140 166 0
-56 -216 -337 0
81 -303 -478 0
9 128 190 0
240 -264 -318 0
-92 137 347 0
119 -315 -379 0
-66 161 285 0
46 99 -378 0
236 289 -426 0
140 251 -297 0
-43 -179 382 0
-118 -225 -444 0
265 -300 461 0
-138 -220 348 0
-164 -269 391 0
137 372 -445 0
73 200 309 0
34 -228 -382 0
-12 -124 249 0
-69 315 -351 0
-34 265 316 0
-105 -151 223 0
106 -142 451 0
158 -174 -461 0
-127 -371 -478 0
-37 -162 -178 0
-52 75 345 0
-31 -233 381 0
-200 326 -373 0
262 494 -500 0
-124 288 456 0
-29 -434 -479 0
90 284 286 0
-170 -238 439 0
-49 -142 -405 0
-113 -410 -438 0
-5 21 360 0
15 -182 -420 0
23 -170 -340 0
262 -296 363 0
-12 264 463 0
141 -345 -472 0
357 396 -461 0
-46 -122 -134 0
67 311 -497 0
-61 -202 -457 0
37 -254 469 0
125 -326 -370 0
95 -149 330 0
118 233 390 0
-14 39 -268 0
-35 -233 275 0
-110 443 -458 0
-50 193 266 0
-166 298 497 0
133 -150 285 0
83 -380 451 0
72 -124 -375 0
-282 473 486 0
-27 347 376 0
-150 -208 -384 0
-190 -280 -344 0
-23 -370 -476 0
148 -327 406 0
-62 98 -176 0
-5 -56 197 0
-67 -116 264 0
42 -140 -332 0
128 432 441 0
106 427 -482 0
218 -238 -323 0
36 307 308 0
-248 -270 -275 0
205 -216 442 0
-98 190 -344 0
213 398 -449 0
20 122 -492 0
-204 -222 275 0
-179 -300 -407 0
-12 -220 255 0
100 194 240 0
255 -418 432 0
352 -369 378 0
34 169 -404 0
161 208 348 0
45 -120 249 0
-105 -183 -445 0
362 483 490 0
245 277 -312 0
-22 -283 368 0
-30 -64 -469 0
96 -393 491 0
-28 360 387 0
210 293 -410 0
135 359 456 0
-42 -64 252 0
113 182 186 0
-135 488 -494 0
-119 230 386 0
-252 309 -324 0
137 242 278 0
-307 -450 -463 0
-33 111 -362 0
431 446 -485 0
-294 303 -499 0
315 -329 -488 0
-246 358 -373 0
198 -327 -439 0
-150 -345 454 0
-56 87 348 0
39 -76 -297 0
-423 -424 454 0
49 109 -254 0
53 303 -453 0
-174 -262 263 0
-102 331 -340 0
114 -287 424 0
10 -98 230 0
242 -313 398 0
-157 410 -428 0
-223 -387 390 0
-325 342 494 0
150 -201 404 0
-97 -253 -327 0
-63 -73 450 0
-65 -166 -395 0
170 350 478 0
-134 -176 -342 0
-150 -321 453 0
21 -125 226 0
-102 344 -369 0
147 295 -406 0
100 -238 433 0
-254 -277 438 0
170 -287 383 0
30 349 -370 0
-158 -408 431 0
-146 -182 -477 0
-40 -364 -444 0
4 205 326 0
74 -398 -445 0
-11 102 458 0
-160 307 -338 0
-97 176 -306 0
-28 -199 352 0
126 -436 466 0
-45 -94 399 0
-118 -127 177 0
36 -60 89 0
9 -177 -250 0
-112 -120 -161 0
-172 246 424 0
21 -195 426 0
-21 -364 398 0
-68 -428 -483 0
-350 -396 -451 0
97 -357 -403 0
-46 70 147 0
-30 -310 390 0
-87 101 -365 0
188 -253 258 0
28 -291 370 0
-130 -161 -240 0
203 382 -422 0
63 -264 353 0
189 -455 476 0
204 -306 473 0
260 -383 -428 0
-4 -214 356 0
-131 285 393 0
252 380 -417 0
-29 188 287 0
-73 -166 -461 0
147 185 286 0
-144 295 -433 0
191 -314 -353 0
-304 -427 -433 0
1 323 -328 0
29 -61 248 0
-144 -219 -500 0
82 -338 -441 0
134 -278 -321 0
77 -144 -188 0
84 213 451 0
176 244 -412 0
30 414 -486 0
-48 210 -470 0
-289 296 -485 0
23 -306 391 0
60 -112 -432 0
12 172 -360 0
79 -337 487 0
108 336 -443 0
-60 -141 -237 0
-173 264 359 0
-291 340 476 0
-33 -177 284 0
-21 230 423 0
-177 -204 327 0
46 71 203 0
-33 -101 -391 0
324 -325 -392 0
-92 271 430 0
-53 -124 251 0
132 238 297 0
181 -281 -378 0
278 448 -462 0
38 -215 -311 0
41 -225 416 0
251 331 -445 0
59 217 -426 0
-78 -435 485 0
264 -267 315 0
-80 98 -274 0
-302 -329 377 0
9 -96 380 0
-264 283 -500 0
19 -100 347 0
342 385 391 0
77 198 334 0
137 -161 363 0
45 60 165 0
-26 152 248 0
-92 -137 339 0
215 443 481 0
-180 -369 497 0
-79 129 -324 0
56 -144 -461 0
-75 -127 -469 0
-36 -207 -447 0
54 111 -260 0
206 -248 -479 0
-171 234 486 0
237 -249 -489 0
-40 218 -408 0
-48 78 -338 0
-192 -373 -383 0
-162 166 -308 0
-39 218 -286 0
29 294 -347 0
55 226 455 0
-166 -309 388 0
-273 364 490 0
100 452 -463 0
-385 -452 -465 0
-99 133 458 0
31 -296 410 0
193 -263 415 0
-108 428 479 0
267 331 -364 0
107 142 254 0
-66 193 384 0
16 390 405 0
-173 208 249 0
-197 -248 289 0
-360 388 438 0
287 359 -421 0
-148 -154 465 0
-155 220 -239 0
-171 -425 -441 0
10 -166 -384 0
110 -114 -215 0
401 -442 -469 0
-87 -124 345 0
-315 -317 -338 0
208 243 -440 0
-44 263 -346 0
38 -152 -203 0
4 -257 336 0
-52 -247 -345 0
271 276 -491 0
107 161 257 0
-233 264 313 0
-42 -205 343 0
-41 258 305 0
346 -399 435 0
71 302 -348 0
126 184 500 0
114 -198 -268 0
-34 48 364 0
14 81 -500 0
-95 300 439 0
97 -282 -381 0
298 -493 -497 0
-67 237 243 0
-74 -261 -322 0
271 332 -478 0
101 129 -362 0
-19 40 -81 0
-132 143 -226 0
97 101 -155 0
13 333 484 0
366 -371 414 0
-433 -444 -484 0
317 -345 488 0
-167 172 338 0
-68 176 361 0
-102 -227 414 0
275 491 499 0
41 46 -188 0
145 -249 301 0
-36 -126 -429 0
-271 311 448 0
-3 -274 456 0
161 -263 -499 0
1 -116 -425 0
-64 -348 476 0
126 -264 -279 0
-48 -119 133 0
239 322 -343 0
-59 242 -277 0
-19 138 185 0
-102 229 -268 0
245 257 -359 0
144 -367 -379 0
95 97 258 0
182 -217 432 0
-59 -367 450 0
-73 204 -256 0
444 -495 -496 0
-164 -181 347 0
-136 320 -465 0
257 350 388 0
101 -224 -440 0
19 -130 206 0
-48 112 -199 0
-367 464 -477 0
-167 -327 341 0
-66 334 -391 0
-232 331 482 0
164 406 -479 0
-397 451 -473 0
-12 182 -200 0
149 183 -487 0
180 468 -489 0
-321 322 -379 0
232 -257 -452 0
154 -320 330 0
-125 -130 347 0
-178 -283 -475 0
-151 308 348 0
-166 330 -364 0
127 348 478 0
12 -236 389 0
-10 -128 337 0
91 140 153 0
-38 357 -436 0
191 -247 -363 0
84 181 237 0
-90 299 423 0
12 87 341 0
138 -154 458 0
-328 -386 451 0
-20 257 -427 0
35 -52 104 0
-44 56 -304 0
158 -255 -309 0
-213 -279 -394 0
271 355 -375 0
48 -135 -466 0
66 -362 -399 0
-212 -272 299 0
-264 -325 -445 0
-22 -39 469 0
-151 -288 -469 0
-86 -326 441 0
46 -270 -404 0
51 326 327 0
-53 -92 190 0
-1 273 309 0
-100 -110 472 0
72 -125 267 0
40 -405 423 0
262 268 320 0
185 -270 -364 0
-182 -190 368 0
-126 307 348 0
139 -321 -399 0
-53 110 -324 0
57 378 430 0
70 -288 439 0
-170 -189 -268 0
-193 217 338 0
181 312 380 0
273 314 424 0
5 -198 448 0
-71 253 371 0
218 279 462 0
220 -226 -438 0
-116 177 402 0
-165 246 -337 0
-29 -36 -215 0
249 453 -461 0
-99 158 -467 0
-12 -80 273 0
-274 318 368 0
13 -87 237 0
358 -369 -451 0
-103 263 327 0
-300 -467 492 0
77 -151 -366 0
-176 -284 329 0
59 -119 -470 0
-202 321 -380 0
148 244 478 0
-199 240 -337 0
83 137 -319 0
123 350 392 0
-11 -235 -378 0
104 -287 -488 0
275 320 321 0
-5 -73 -393 0
52 -117 -437 0
90 128 218 0
-111 -258 -285 0
-212 390 -463 0
102 -134 -355 0
-132 -294 -499 0
-208 -253 407 0
-152 -220 -487 0
-3 200 -295 0
-51 416 440 0
-56 -378 499 0
127 271 354 0
310 -407 -495 0
104 401 -469 0
85 -234 -346 0
259 281 -448 0
91 369 -465 0
48 141 343 0
132 156 -336 0
-298 327 -407 0
251 295 447 0
157 -168 -466 0
124 -168 -191 0
157 -264 452 0
39 -108 -256 0
-327 352 -478 0
-315 -338 467 0
145 -419 442 0
146 210 -414 0
-25 287 365 0
-42 -97 285 0
46 -340 482 0
-39 450 477 0
-69 -85 205 0
196 323 -489 0
11 -54 147 0
174 175 441 0
122 138 272 0
-306 331 -361 0
-14 32 223 0
108 325 448 0
279 419 -433 0
-137 -158 277 0
-51 283 316 0
-227 -385 -437 0
226 263 -428 0
-275 -416 498 0
35 -44 403 0
75 -137 -190 0
232 -260 -450 0
-162 -349 489 0
-31 -159 177 0
40 179 278 0
118 -407 490 0
201 -273 445 0
-107 -370 -445 0
176 210 315 0
