c description: Random 3-CNF over 500 variables and 2129 clauses
c generator: CNFgen (0.9.6)
c copyright: (C) 2012-2026 Massimo Lauria <massimo.lauria@uniroma1.it>
c url: https://massimolauria.net/cnfgen
c command line: cnfgen randkcnf 3 500 2129
c
p cnf 500 2129
-119 -430 -493 0
258 -347 361 0
-324 330 351 0
43 103 -458 0
135 -341 373 0
-297 475 479 0
-156 280 -480 0
39 118 371 0
-103 135 -377 0
-115 -116 -292 0
-5 325 452 0
-107 154 -252 0
68 -160 -313 0
251 -305 -378 0
-4 20 416 0
-196 -406 -407 0
-17 341 481 0
-139 -287 -484 0
141 262 -291 0
-6 -15 -81 0
314 -442 -479 0
-33 -103 466 0
-33 110 201 0
-94 -314 -425 0
-49 173 -443 0
-389 -397 -499 0
-329 386 -488 0
-62 -209 -384 0
-42 -180 301 0
62 -129 465 0
32 311 318 0
168 -276 441 0
16 -17 186 0
406 -448 458 0
-195 367 -382 0
55 -145 -338 0
-2 -222 -261 0
66 230 376 0
-73 -135 -290 0
179 -362 -499 0
129 -187 248 0
116 293 446 0
-233 -249 457 0
370 429 -498 0
30 -262 455 0
-68 121 474 0
-48 166 -196 0
-64 100 -334 0
-23 181 362 0
154 244 -466 0
86 367 -416 0
167 198 -237 0
74 281 483 0
-27 -125 -401 0
-311 -327 335 0
-173 261 -446 0
-242 -277 -320 0
180 271 338 0
65 244 -458 0
50 67 -482 0
20 -80 429 0
-113 -287 353 0
270 298 333 0
13 71 -483 0
-119 262 322 0
-55 -308 -423 0
-31 -235 258 0
-411 433 -454 0
-73 -94 461 0
-165 -242 -403 0
-10 44 485 0
-119 295 -480 0
-132 418 -468 0
152 -178 347 0
-46 344 431 0
38 160 470 0
-256 -414 442 0
39 -193 199 0
67 -442 -484 0
31 320 348 0
-59 -260 -327 0
111 222 -382 0
108 -134 -153 0
19 170 240 0
-29 -287 -447 0
-193 -281 458 0
315 -387 -413 0
247 298 341 0
-371 402 416 0
-53 -131 343 0
343 -433 -452 0
-239 302 311 0
352 -431 468 0
48 -440 467 0
-56 324 -445 0
-244 -267 484 0
-1 196 354 0
233 416 -460 0
-93 247 -485 0
84 -433 482 0
31 118 -166 0
-58 315 497 0
-195 313 -331 0
16 27 -55 0
-175 -346 454 0
34 -88 333 0
16 -333 -389 0
-158 259 -333 0
44 -286 425 0
-179 -204 373 0
19 156 -200 0
-416 -462 496 0
193 -314 360 0
211 -215 433 0
116 123 -192 0
-143 -153 326 0
-9 -222 272 0
5 -234 357 0
76 203 -304 0
-91 109 -420 0
-224 290 -322 0
111 293 412 0
168 471 -482 0
253 262 -464 0
-189 -235 -350 0
-237 259 287 0
154 208 -421 0
132 -417 453 0
44 183 -444 0
-102 -187 -442 0
114 -201 250 0
-267 430 -443 0
-239 275 -379 0
59 -269 -410 0
-36 109 -280 0
-1 -21 -235 0
158 -206 -350 0
85 -181 -209 0
-64 -207 492 0
63 -245 305 0
31 -173 482 0
401 451 -479 0
188 197 -403 0
6 116 -332 0
189 -266 268 0
178 332 -401 0
16 185 364 0
175 -259 449 0
310 -463 -471 0
-310 -328 462 0
-152 200 -413 0
-163 257 301 0
-42 119 301 0
-20 -125 -161 0
-137 372 411 0
24 -66 -237 0
-59 -468 -479 0
156 438 483 0
274 -423 451 0
-5 52 -313 0
103 140 344 0
-64 -163 319 0
-108 217 -333 0
159 240 -427 0
178 -236 -258 0
-160 -206 219 0
177 -284 -400 0
367 -394 -430 0
192 440 471 0
-87 -390 416 0
333 -404 472 0
99 -144 223 0
377 423 -485 0
169 384 433 0
-173 192 449 0
-173 230 -390 0
18 -29 -94 0
12 239 -331 0
-131 -302 -312 0
-7 -36 -482 0
226 -341 468 0
161 -460 -464 0
36 121 -486 0
-255 280 -389 0
18 74 -438 0
-164 -328 -352 0
9 -326 -387 0
107 417 429 0
-173 261 406 0
261 360 361 0
82 149 425 0
242 -341 426 0
256 -346 -487 0
299 417 444 0
141 196 413 0
-210 -231 258 0
240 279 -281 0
-71 93 226 0
-18 180 -475 0
92 -169 -171 0
-63 180 -333 0
19 179 -496 0
-335 383 491 0
48 337 497 0
-238 245 273 0
69 -414 479 0
126 315 480 0
-146 373 -439 0
396 453 -464 0
-55 -249 -296 0
-163 -290 312 0
-84 -265 -364 0
-33 -250 -430 0
19 -223 346 0
12 53 364 0
19 120 282 0
-48 -86 391 0
185 254 484 0
21 -98 143 0
-164 -247 472 0
-216 356 -406 0
35 -153 -473 0
-303 -359 -477 0
-90 232 345 0
-242 -326 434 0
28 190 -429 0
-112 -166 203 0
-29 -39 201 0
-174 213 337 0
304 334 -471 0
47 -279 -463 0
28 287 -365 0
-66 -313 -418 0
-388 -399 477 0
107 281 324 0
-63 162 -429 0
16 32 -117 0
282 299 -308 0
71 -81 366 0
-14 256 346 0
-355 381 -395 0
-16 272 477 0
66 -469 -492 0
30 311 -374 0
259 285 417 0
-70 378 415 0
-104 249 369 0
413 -422 464 0
56 -308 -321 0
-19 68 -216 0
-97 -324 345 0
-74 -185 246 0
58 -156 286 0
-201 -294 -339 0
-229 269 -345 0
82 -254 344 0
-204 -249 -473 0
-322 390 -484 0
-348 375 499 0
42 322 -486 0
-195 -359 -492 0
-20 297 383 0
-257 407 466 0
-26 -153 375 0
324 430 -468 0
37 -261 277 0
151 410 -436 0
-57 116 -156 0
19 -121 142 0
-230 240 -396 0
151 211 -308 0
-170 415 -473 0
-27 111 -471 0
23 81 -185 0
-149 168 265 0
-131 -183 291 0
126 -147 263 0
244 -320 -348 0
131 -169 -438 0
265 294 -415 0
102 -231 -333 0
137 -226 233 0
-199 294 338 0
38 -466 -468 0
146 249 277 0
3 -140 -342 0
-23 112 222 0
-12 -150 309 0
-5 -195 -351 0
-40 201 -359 0
-227 -273 -307 0
35 -250 -479 0
-251 -270 -427 0
471 484 499 0
-1 36 -241 0
-19 169 281 0
-70 187 -400 0
319 -390 422 0
252 285 396 0
36 345 -489 0
136 148 451 0
-248 -299 363 0
-38 -137 357 0
344 -378 -498 0
163 -171 191 0
-191 -201 261 0
198 292 348 0
260 439 -493 0
130 -138 -491 0
-240 241 432 0
-357 -359 -439 0
306 -390 -491 0
-109 -217 -460 0
-60 -282 389 0
13 -186 419 0
-136 225 362 0
-3 125 326 0
-13 54 248 0
-24 -129 295 0
25 -44 -191 0
-160 -278 -287 0
-166 263 -300 0
64 122 240 0
-95 183 -193 0
-112 -155 447 0
70 331 387 0
77 -260 -337 0
117 -243 -316 0
-43 -160 167 0
-9 35 -195 0
63 130 215 0
-149 -362 395 0
-88 -273 -490 0
-226 -276 -463 0
73 -110 445 0
-16 210 320 0
107 163 245 0
343 -373 459 0
-78 125 181 0
22 293 393 0
187 201 -441 0
-121 128 -167 0
105 -267 321 0
152 349 -417 0
-83 -162 -236 0
-203 -369 -463 0
85 -162 259 0
133 -370 418 0
143 186 -455 0
-329 339 -435 0
-87 295 356 0
-139 -387 -429 0
121 -219 -249 0
-55 -106 -234 0
-70 -231 277 0
88 -170 -188 0
-11 32 -54 0
-254 391 -409 0
42 154 303 0
36 -278 482 0
-103 -198 -320 0
-433 462 495 0
-174 265 425 0
304 -417 -463 0
-103 375 420 0
-46 -297 332 0
-209 -327 457 0
-247 -292 401 0
227 316 -348 0
46 90 -402 0
-35 -58 -261 0
-157 285 -410 0
67 129 -176 0
18 26 341 0
205 -352 455 0
55 63 112 0
128 166 -348 0
16 106 176 0
-63 -163 -290 0
64 -213 -433 0
-3 -266 476 0
100 -306 -417 0
-181 353 -499 0
59 127 360 0
85 330 394 0
-57 220 -372 0
281 -285 343 0
24 -62 -267 0
34 -224 -318 0
-377 -379 437 0
-23 181 -377 0
-166 -247 466 0
-149 281 387 0
-262 -364 -454 0
189 324 482 0
289 -446 -485 0
92 451 457 0
-149 -338 348 0
-142 -379 -425 0
202 235 432 0
46 91 210 0
149 -253 -461 0
-188 376 394 0
-140 320 -473 0
71 -248 -378 0
334 -365 -461 0
-104 -178 -179 0
-125 203 386 0
-167 -327 -419 0
-282 -314 -323 0
90 -141 301 0
110 311 411 0
-103 -289 -370 0
-172 456 484 0
6 -235 -466 0
-205 -248 -432 0
299 395 -463 0
-244 -299 -317 0
220 324 490 0
-46 105 236 0
-75 204 299 0
58 -134 -324 0
179 -267 301 0
-97 319 447 0
225 278 -403 0
55 -453 486 0
58 -175 -441 0
-165 -199 270 0
68 -206 -490 0
98 -154 349 0
-348 -421 -451 0
-20 210 380 0
83 345 396 0
19 116 224 0
-284 341 -470 0
-12 -352 -370 0
-156 -277 434 0
-249 -307 -381 0
165 -301 -445 0
146 400 -484 0
379 481 482 0
-243 -366 425 0
-69 -302 -444 0
201 316 392 0
224 -426 -480 0
211 -234 -415 0
21 -39 374 0
-51 -201 241 0
-248 400 -493 0
-32 205 212 0
2 -300 -328 0
-10 -141 -269 0
-148 337 -483 0
31 230 258 0
-116 -488 -499 0
-209 -278 457 0
-108 155 -290 0
-80 278 493 0
-147 296 -476 0
-297 -415 -495 0
-50 62 268 0
-15 103 -201 0
-190 368 402 0
57 410 -477 0
-153 246 461 0
85 178 -183 0
-32 -259 -347 0
-5 -281 320 0
-236 -376 443 0
42 -269 465 0
-123 -127 231 0
126 182 206 0
139 -260 -319 0
54 84 -284 0
-43 127 -141 0
4 85 144 0
-60 -354 477 0
-116 -476 494 0
196 239 318 0
185 227 -299 0
-21 282 496 0
87 277 495 0
43 273 -420 0
63 292 423 0
-84 215 -274 0
-175 269 -387 0
-19 136 328 0
-282 332 357 0
12 96 -237 0
131 142 464 0
48 -177 318 0
15 63 127 0
-97 -184 -290 0
-123 130 209 0
76 -77 170 0
39 147 -456 0
-292 -325 -433 0
-113 -304 -493 0
-56 122 -234 0
209 -213 -346 0
95 -445 -478 0
84 -123 390 0
87 -180 252 0
6 127 376 0
50 94 -174 0
-36 -368 476 0
83 119 158 0
-314 437 446 0
-161 334 496 0
-284 322 404 0
35 141 203 0
-84 219 -429 0
-18 -75 -434 0
-91 -343 480 0
-20 316 346 0
87 332 -451 0
154 -292 -481 0
-264 -324 472 0
-156 -172 427 0
17 -91 404 0
-320 388 -495 0
94 398 500 0
-281 -473 -479 0
-136 -309 484 0
194 -224 -430 0
-69 261 -450 0
246 268 346 0
240 -474 -487 0
-65 -105 -413 0
-104 291 426 0
-64 179 476 0
215 -268 -473 0
359 395 -436 0
260 339 472 0
-158 318 -342 0
22 -34 52 0
-102 -205 209 0
-118 240 -304 0
-136 374 -493 0
-9 -212 -490 0
-17 -136 -386 0
-77 -153 329 0
-1 -44 -230 0
-218 239 444 0
168 386 -421 0
-83 143 427 0
-36 -204 -380 0
144 -391 -447 0
197 -416 -439 0
-6 111 205 0
-135 -345 481 0
28 -265 393 0
120 -270 -364 0
112 221 391 0
22 -135 286 0
174 -203 302 0
84 466 -473 0
-87 -341 409 0
-159 -171 319 0
91 131 397 0
98 -242 -496 0
47 334 -387 0
-36 -68 425 0
36 -322 -425 0
10 94 161 0
-39 67 97 0
-169 179 439 0
14 -415 419 0
-325 482 -498 0
192 254 -382 0
60 -93 313 0
-189 204 396 0
203 -301 488 0
72 116 459 0
173 -212 -460 0
-120 -129 -155 0
-38 -49 428 0
241 -386 414 0
-166 -190 -275 0
-79 144 204 0
133 249 -427 0
-166 -339 397 0
-24 443 454 0
180 265 -494 0
-126 195 -458 0
-34 -268 -337 0
-14 -251 -272 0
-122 -157 -446 0
153 -380 -491 0
-39 257 459 0
52 -136 403 0
-155 165 -451 0
-67 265 284 0
150 -210 -228 0
-137 356 369 0
-140 -455 468 0
290 -363 -383 0
-21 -234 445 0
80 177 -207 0
71 -102 202 0
-22 64 344 0
-35 -107 -439 0
-37 165 -354 0
-73 91 -421 0
-36 43 -291 0
81 -192 496 0
-87 -144 -481 0
213 -376 -421 0
17 -46 -451 0
-309 -344 -454 0
-112 -167 296 0
405 456 494 0
159 -293 -477 0
-262 -308 317 0
-35 180 -456 0
-116 -402 437 0
170 -204 -421 0
-1 12 92 0
159 195 -225 0
-88 -180 -275 0
15 -35 -254 0
-58 80 424 0
22 -30 -294 0
138 156 395 0
255 344 369 0
170 236 332 0
64 -188 -340 0
54 -282 -492 0
373 389 417 0
80 94 290 0
-42 169 -356 0
-199 -265 482 0
-12 140 339 0
-76 -141 278 0
-289 386 488 0
158 296 304 0
247 -253 303 0
-166 -223 263 0
193 421 -493 0
29 -72 463 0
83 105 243 0
-159 -211 -423 0
-404 -452 -498 0
-87 198 -295 0
41 101 -421 0
-245 409 -476 0
-39 -157 -328 0
-5 -114 -159 0
40 -68 -304 0
59 -198 -432 0
409 -410 460 0
-49 154 -352 0
-111 242 -495 0
-90 -138 -437 0
-40 180 -208 0
-151 280 329 0
120 -195 -303 0
195 343 455 0
190 -292 351 0
-124 165 453 0
29 -328 338 0
-359 -435 -492 0
128 238 -406 0
-120 -156 -165 0
9 -10 -130 0
10 -241 -400 0
-300 375 -475 0
159 237 -378 0
210 211 -258 0
-189 275 499 0
-70 -168 -246 0
-130 -143 -259 0
-26 -308 -404 0
-39 -83 323 0
88 271 485 0
63 -118 -393 0
-80 266 302 0
209 353 -374 0
-197 224 -323 0
-189 -227 489 0
-358 387 -428 0
-43 419 494 0
231 296 -309 0
-40 -51 261 0
277 -313 -484 0
242 243 276 0
-28 -171 -257 0
-7 65 234 0
-143 -305 479 0
276 -298 332 0
134 -306 386 0
-30 40 111 0
9 231 478 0
196 266 -289 0
79 156 428 0
-92 137 148 0
-62 179 -289 0
152 343 478 0
-107 432 441 0
104 288 436 0
-1 46 263 0
-48 451 -478 0
29 96 275 0
-21 -285 -395 0
-96 155 -303 0
-137 -233 -365 0
-123 -336 385 0
-79 -152 -496 0
-143 -204 -495 0
-61 254 424 0
-10 275 491 0
-84 -184 318 0
-12 324 366 0
-80 86 -212 0
156 409 467 0
-62 294 358 0
-263 426 -481 0
142 -463 491 0
186 -216 272 0
-149 195 262 0
110 183 492 0
-346 -409 468 0
-232 -309 406 0
156 -186 -217 0
121 -192 379 0
-308 456 -468 0
-47 73 90 0
-203 335 -348 0
212 -266 -469 0
-113 188 279 0
-17 271 422 0
-32 169 383 0
-163 -285 -331 0
-132 318 -498 0
-240 -352 442 0
-230 279 -330 0
5 33 442 0
-96 378 -407 0
-151 -261 -310 0
292 347 466 0
239 297 338 0
141 151 472 0
-226 414 459 0
6 -171 -402 0
-258 -263 361 0
107 180 315 0
158 364 -434 0
-101 -256 -311 0
-165 238 343 0
-76 214 -385 0
160 231 -372 0
21 171 180 0
-26 -255 -258 0
-106 -158 -191 0
127 -266 422 0
34 -262 -495 0
63 202 -246 0
75 -172 -320 0
236 287 490 0
85 153 -290 0
28 92 -435 0
-235 -381 -500 0
139 -177 -210 0
-257 -262 358 0
-187 -284 -285 0
-158 -255 272 0
-280 356 496 0
-314 380 392 0
-90 -183 -250 0
-171 254 -490 0
152 -198 396 0
-3 -374 398 0
-43 -315 -347 0
-251 477 -480 0
-90 154 -357 0
-127 284 300 0
20 390 429 0
9 20 328 0
-5 -405 458 0
156 -380 485 0
-145 -198 468 0
44 72 110 0
-176 254 -484 0
-123 -191 -293 0
128 -166 433 0
-296 398 -460 0
-228 -278 442 0
-120 -128 316 0
184 290 -397 0
-29 74 469 0
37 106 329 0
-88 -220 244 0
168 282 432 0
-99 -253 304 0
164 184 353 0
241 358 474 0
11 121 155 0
110 442 498 0
50 395 476 0
-110 245 -431 0
284 313 365 0
-239 378 424 0
40 -96 295 0
-3 233 -375 0
198 202 490 0
51 -152 295 0
-13 314 464 0
152 233 -380 0
249 380 -478 0
27 -78 -150 0
64 -215 416 0
-28 126 471 0
-194 283 -450 0
-114 -334 -366 0
244 -404 441 0
1 -124 162 0
41 343 448 0
93 -134 162 0
153 -206 388 0
87 -108 429 0
93 -191 481 0
-179 453 -460 0
287 288 406 0
-22 -183 -214 0
9 -235 245 0
-148 -213 -308 0
-34 117 -492 0
-212 411 -441 0
271 -333 496 0
112 269 -392 0
-25 -270 -456 0
-6 58 -458 0
-71 -359 -471 0
-26 -171 -251 0
124 -151 306 0
-349 -457 -491 0
-306 418 447 0
-79 -187 -211 0
9 -238 284 0
4 -282 -382 0
-80 -183 -483 0
101 -288 -301 0
142 357 -423 0
156 186 -343 0
319 327 -348 0
187 408 479 0
126 -266 -390 0
-117 231 -308 0
212 215 239 0
-16 -75 -465 0
-15 373 -404 0
-90 199 -387 0
31 -267 -375 0
124 -212 -436 0
-17 72 -407 0
209 261 -354 0
11 -254 -496 0
1 -156 -493 0
35 -77 -352 0
-51 -348 465 0
186 349 373 0
386 -407 -428 0
-126 277 283 0
-24 114 321 0
-95 -301 -345 0
420 425 -456 0
180 -342 426 0
120 -232 -302 0
-181 444 487 0
104 -218 -485 0
302 303 474 0
-53 -133 172 0
52 257 331 0
-62 -389 444 0
-295 -421 -457 0
68 446 491 0
32 84 -368 0
-152 310 494 0
87 452 -498 0
55 232 284 0
214 278 324 0
65 -231 435 0
373 429 457 0
7 -235 477 0
-228 -293 -419 0
-60 -269 -445 0
136 261 500 0
150 324 -334 0
-135 377 410 0
-419 -427 471 0
-31 -424 437 0
107 -213 -487 0
343 354 -443 0
-47 -97 465 0
-269 -335 -342 0
136 244 360 0
54 420 470 0
182 282 367 0
-72 -313 410 0
-264 304 388 0
-151 -160 238 0
59 -222 -498 0
30 -218 -450 0
99 -351 -466 0
-82 123 -307 0
109 -332 -395 0
141 -168 -439 0
142 -234 310 0
-111 266 288 0
192 225 256 0
239 -475 476 0
-16 211 -360 0
32 222 -379 0
196 280 -373 0
175 -196 -298 0
-146 282 283 0
19 237 -481 0
293 437 -446 0
-68 -111 305 0
-45 393 -451 0
-116 273 -283 0
-397 419 -448 0
15 165 -207 0
-60 65 302 0
6 294 351 0
223 -230 -410 0
392 402 -417 0
261 325 466 0
59 91 403 0
-74 400 -479 0
-95 -249 416 0
119 263 -417 0
78 130 378 0
-72 -407 -427 0
52 237 250 0
-109 -166 178 0
42 -204 393 0
-59 -314 -336 0
73 216 326 0
51 -101 -264 0
-222 -471 -499 0
-18 -73 -167 0
-122 -257 -422 0
316 -481 489 0
331 -400 418 0
-30 -112 -437 0
307 -341 -382 0
-203 -275 340 0
101 -124 388 0
-180 -323 434 0
-55 -150 445 0
-78 90 177 0
-7 160 -399 0
-174 -357 -461 0
-222 482 -495 0
4 -79 321 0
-4 -245 436 0
35 -303 462 0
40 -233 279 0
210 303 -452 0
-28 -377 -478 0
83 -356 473 0
88 284 -389 0
-102 -320 323 0
-334 -391 -458 0
-28 -89 -276 0
89 169 317 0
-21 42 454 0
-134 262 -283 0
90 -172 369 0
178 -307 -488 0
179 230 -351 0
28 -71 -493 0
-76 159 464 0
-192 -309 -322 0
352 430 446 0
198 386 483 0
-245 264 -486 0
-297 -403 -432 0
66 133 196 0
180 -194 -294 0
193 -317 490 0
17 153 -178 0
8 288 412 0
-143 197 330 0
-47 -86 -344 0
41 -218 367 0
86 397 484 0
-269 394 422 0
-61 -137 251 0
-216 386 -387 0
44 188 -482 0
-85 -145 426 0
91 156 498 0
-55 -112 429 0
-78 -234 359 0
-213 -330 357 0
231 332 448 0
-147 272 -351 0
-302 -370 472 0
-119 -203 -485 0
-1 -30 -39 0
90 151 -297 0
-106 -168 483 0
-136 145 -188 0
-160 -242 -319 0
225 410 443 0
-227 357 -413 0
25 297 -435 0
40 163 376 0
-165 478 -495 0
242 -363 -371 0
22 56 -70 0
-373 -461 -467 0
-270 324 -326 0
-75 282 296 0
-28 180 -268 0
-62 -78 282 0
-57 -220 -436 0
11 -149 391 0
250 304 457 0
61 248 -464 0
-219 -384 431 0
-123 -156 -381 0
-292 368 -490 0
-101 165 -481 0
80 -200 442 0
-120 236 468 0
84 340 -489 0
23 143 -196 0
-179 -302 322 0
-320 446 466 0
11 129 -131 0
-47 -156 374 0
-107 367 -401 0
-193 251 -285 0
361 365 -374 0
48 -100 -454 0
125 -291 -330 0
-3 -247 310 0
55 265 285 0
-20 -210 254 0
-62 -190 224 0
-4 107 -140 0
216 268 -273 0
217 -227 -337 0
171 217 224 0
87 127 330 0
185 -241 -288 0
3 42 -494 0
207 259 273 0
27 -247 293 0
104 300 -412 0
16 169 -409 0
-5 -236 -405 0
-222 -251 -401 0
-2 31 500 0
-134 173 -225 0
-234 353 -359 0
-47 -292 381 0
103 -214 -402 0
315 -382 -435 0
202 348 -444 0
330 -334 398 0
247 319 -445 0
-114 243 -496 0
-150 219 -329 0
-29 58 -169 0
-90 244 408 0
138 -155 449 0
120 320 498 0
15 135 -266 0
-12 48 -71 0
10 306 -400 0
-93 -98 414 0
-58 -351 404 0
-154 -416 418 0
159 -163 335 0
12 -209 263 0
-24 -81 -364 0
-40 -46 349 0
56 -199 -436 0
-21 67 399 0
-325 -385 386 0
120 -154 -300 0
148 278 338 0
330 331 403 0
114 318 -389 0
-146 -302 304 0
113 178 453 0
80 -119 421 0
291 -298 462 0
-72 -224 -429 0
142 207 -244 0
-42 68 -149 0
264 280 380 0
-270 434 -471 0
193 252 -403 0
22 171 214 0
87 227 321 0
116 247 -406 0
147 465 471 0
-117 -437 488 0
-159 259 -443 0
301 -306 -324 0
-162 -301 -441 0
-76 95 -215 0
165 -275 464 0
58 -121 -251 0
161 -399 -448 0
40 -226 -378 0
-85 -259 -492 0
-194 245 279 0
118 297 -453 0
66 -119 214 0
-1 -129 142 0
-80 -118 248 0
-308 -355 398 0
79 -254 -308 0
52 -89 143 0
70 -120 288 0
257 301 -366 0
-222 -242 -385 0
-177 -416 -438 0
196 231 -242 0
265 429 -498 0
-53 -200 -257 0
-95 113 -234 0
-58 240 -392 0
161 340 -450 0
55 -249 -435 0
11 -189 -397 0
-8 -353 485 0
142 340 461 0
-47 -75 386 0
-63 186 428 0
26 -33 -397 0
-16 -255 465 0
-72 -217 -371 0
-77 197 -493 0
-148 186 485 0
74 225 -297 0
-206 -223 379 0
234 -346 457 0
377 -391 473 0
-94 -414 -494 0
132 -222 -242 0
-90 -280 386 0
-409 -434 453 0
159 401 -410 0
101 -203 -294 0
82 265 -370 0
193 -264 446 0
-5 -6 279 0
228 -405 -436 0
-170 273 307 0
-141 186 366 0
-318 361 -407 0
-78 339 -439 0
68 226 -450 0
124 -185 364 0
-147 250 458 0
-220 408 466 0
17 83 -363 0
92 -140 328 0
215 -261 -387 0
-75 111 494 0
-44 292 -389 0
-154 221 279 0
130 -140 -485 0
-38 -309 410 0
67 -283 405 0
-239 -294 -323 0
35 -48 456 0
14 -93 -448 0
-39 105 393 0
-73 234 -333 0
274 -276 -387 0
-156 -299 -474 0
204 216 -242 0
-147 -226 -410 0
-198 202 -235 0
-189 249 -395 0
-57 313 404 0
51 -62 92 0
5 -101 -195 0
36 66 -498 0
-201 293 -427 0
136 -167 -304 0
-118 297 367 0
111 370 468 0
-179 188 382 0
270 -303 398 0
60 -153 408 0
-106 -163 -291 0
152 -281 377 0
-79 249 -255 0
-87 177 -266 0
-22 199 420 0
266 356 425 0
189 -373 -464 0
208 292 307 0
22 -147 398 0
-354 -380 -432 0
-105 -253 272 0
13 -253 298 0
-108 -359 500 0
-30 106 -257 0
142 160 -166 0
34 260 -372 0
-176 334 -415 0
-275 323 330 0
142 233 -268 0
-190 -315 348 0
-228 -336 466 0
-231 -340 -431 0
-143 -181 -216 0
96 -133 -443 0
-305 431 470 0
-69 189 -371 0
171 347 463 0
-159 271 -352 0
-51 -156 259 0
125 323 -345 0
-9 112 449 0
45 188 -490 0
343 -419 -482 0
-118 169 -313 0
-192 -253 -443 0
-49 323 420 0
179 -265 -319 0
-168 -171 -486 0
152 208 -446 0
227 301 496 0
-65 102 483 0
-192 -340 -473 0
101 221 -365 0
-118 -178 283 0
110 -193 429 0
215 444 -462 0
-71 274 496 0
-209 -211 290 0
42 -274 294 0
-307 359 -386 0
141 186 316 0
30 -171 261 0
-35 -173 392 0
220 260 -409 0
90 96 333 0
-229 312 492 0
-166 -408 473 0
3 155 -392 0
-68 -443 -484 0
358 -375 455 0
-23 183 -421 0
-133 301 -303 0
-14 -473 486 0
-257 -399 -415 0
138 -403 -489 0
67 324 433 0
158 211 -365 0
22 30 254 0
286 355 -382 0
-57 268 -291 0
-146 244 -261 0
123 159 -179 0
123 345 -401 0
-292 325 -486 0
-36 179 205 0
-117 -139 -438 0
-101 311 -319 0
241 -411 -437 0
-75 -446 458 0
32 57 -161 0
-51 99 -332 0
-46 181 349 0
25 -148 396 0
49 -184 195 0
259 339 450 0
138 172 -400 0
-36 -416 494 0
85 -371 -451 0
-31 -273 321 0
85 143 -154 0
223 -431 -434 0
-109 156 -278 0
130 144 -298 0
-59 79 383 0
-20 33 470 0
-168 -311 -333 0
-132 262 345 0
-170 445 476 0
287 325 -414 0
56 -234 448 0
-103 -204 380 0
-77 -157 -368 0
162 -165 377 0
61 -264 -270 0
19 345 -435 0
-326 -423 -456 0
113 294 381 0
52 -119 336 0
379 -398 -469 0
147 -238 -336 0
148 296 -334 0
-24 92 -178 0
315 389 -473 0
12 136 500 0
36 -199 -439 0
43 414 473 0
-255 372 383 0
29 -164 -203 0
-438 446 480 0
35 325 -410 0
68 322 462 0
4 255 -352 0
279 -344 -496 0
11 283 412 0
-120 -254 -294 0
2 83 -363 0
-3 13 177 0
48 393 -444 0
-8 -60 -302 0
235 257 429 0
91 316 -454 0
-65 -327 330 0
34 -51 453 0
69 298 -494 0
-133 141 383 0
-46 134 310 0
-451 -486 493 0
159 -281 -368 0
-96 -154 357 0
-138 233 325 0
-237 -395 454 0
154 238 395 0
5 25 370 0
-86 365 424 0
-153 -231 -396 0
-51 -178 -324 0
65 -349 -364 0
-222 404 411 0
93 -180 401 0
117 -182 483 0
-236 -309 390 0
-246 338 383 0
80 141 -436 0
-133 -209 287 0
262 264 -482 0
-178 -191 323 0
166 -240 -262 0
-88 -284 473 0
293 -355 489 0
-180 390 417 0
112 287 326 0
-58 81 -464 0
116 321 399 0
-292 -329 478 0
-17 421 429 0
195 -354 441 0
229 260 491 0
81 249 383 0
-191 235 323 0
37 -140 -176 0
112 -198 -372 0
95 312 -389 0
18 164 -303 0
96 -188 237 0
91 274 384 0
-60 -383 -459 0
-210 222 283 0
104 -157 -339 0
11 194 343 0
116 -283 350 0
-3 -228 -282 0
13 79 131 0
175 -309 -438 0
-244 -258 -356 0
-191 287 447 0
-28 149 379 0
-39 74 129 0
-16 -374 -457 0
341 364 -372 0
-156 261 463 0
-3 227 378 0
125 -215 217 0
3 86 -373 0
-32 -140 368 0
-305 307 407 0
-80 -168 -261 0
-64 -86 -266 0
-65 -295 -404 0
-57 144 459 0
102 -159 285 0
-294 -297 487 0
152 219 -357 0
130 138 -214 0
-49 -139 -339 0
109 -403 -409 0
149 175 204 0
192 230 -260 0
-50 442 473 0
-258 388 -446 0
-215 232 326 0
-211 -481 490 0
-56 76 357 0
-71 -474 477 0
5 353 -463 0
-243 383 -452 0
297 360 370 0
-197 -385 -481 0
-18 384 -425 0
34 82 206 0
387 475 488 0
71 -175 -464 0
-35 61 123 0
-67 -395 -500 0
23 35 102 0
157 347 362 0
-39 -270 -288 0
212 -365 -415 0
-74 -312 375 0
3 224 -448 0
108 336 446 0
443 444 451 0
299 397 -451 0
56 300 320 0
235 -257 450 0
-282 346 423 0
-182 -219 273 0
-185 310 -347 0
2 -344 403 0
-95 -389 -408 0
-111 -288 -474 0
19 -191 485 0
-116 -384 456 0
73 135 146 0
88 199 394 0
119 225 305 0
-38 -405 -491 0
123 250 -389 0
98 -285 -428 0
-138 356 -456 0
-18 -243 -320 0
190 446 -476 0
-16 208 252 0
69 190 212 0
-232 -422 -490 0
-266 323 459 0
-245 -407 433 0
195 -253 453 0
171 385 490 0
-231 -410 438 0
25 -184 206 0
-122 -262 -369 0
-206 -230 446 0
-284 404 407 0
42 176 331 0
-32 240 303 0
80 -149 -310 0
124 -266 -310 0
-222 271 489 0
-39 -97 -183 0
24 35 155 0
48 393 -425 0
-45 -164 349 0
148 255 295 0
-251 -349 -456 0
224 322 469 0
-45 -62 290 0
120 194 -490 0
-157 450 487 0
-91 -198 266 0
89 103 -321 0
-35 -185 -328 0
-71 -98 -311 0
-105 266 460 0
114 211 -382 0
185 -207 -398 0
-44 198 -435 0
-34 341 -373 0
-65 74 -132 0
-9 214 379 0
283 336 338 0
-148 -306 -377 0
-134 243 452 0
-222 267 -462 0
209 -235 402 0
-46 -77 139 0
66 -116 -482 0
-60 -133 -393 0
-41 -152 -437 0
-23 400 499 0
143 -457 -479 0
-73 -149 476 0
299 -443 475 0
-93 -198 396 0
46 -351 424 0
129 -266 370 0
174 304 -477 0
260 317 461 0
-12 -33 61 0
-49 84 286 0
-74 -133 454 0
88 210 491 0
129 187 -355 0
-35 -318 -321 0
89 -244 -421 0
-172 -224 -294 0
381 413 -452 0
21 341 397 0
-58 -110 212 0
47 -281 286 0
90 -154 386 0
-218 345 -355 0
-324 370 420 0
85 464 480 0
355 -415 470 0
106 -393 480 0
85 -366 397 0
-89 -220 -442 0
-88 357 378 0
-375 -433 -497 0
45 -304 -431 0
113 -326 456 0
-178 298 -471 0
330 -368 430 0
-95 -122 332 0
255 -381 -449 0
280 367 438 0
9 155 -234 0
220 -244 -484 0
26 -88 -442 0
-182 -339 481 0
11 -69 -451 0
162 -195 -331 0
-108 -178 452 0
-192 -281 -381 0
34 194 -322 0
7 -158 298 0
152 -167 -360 0
128 -326 352 0
-141 -406 435 0
75 -189 479 0
-79 -140 237 0
31 -180 -361 0
286 -366 387 0
-249 -354 -361 0
218 392 393 0
-24 37 406 0
209 303 398 0
-105 297 -493 0
123 155 271 0
190 202 342 0
-91 -265 385 0
-7 240 336 0
-82 -164 -361 0
-179 459 482 0
69 -180 361 0
-26 181 353 0
38 -190 -353 0
-67 74 458 0
-136 -255 305 0
14 458 -474 0
103 205 328 0
238 -264 493 0
-408 -414 469 0
48 151 241 0
-129 210 394 0
-134 -169 401 0
-215 261 408 0
133 247 -482 0
64 449 477 0
251 289 -343 0
61 -198 -485 0
-41 166 -338 0
-67 -311 345 0
25 -88 -459 0
154 -401 471 0
-5 251 322 0
190 -237 -456 0
-86 397 -470 0
56 283 -421 0
-192 -196 200 0
258 325 -451 0
57 164 -185 0
-3 -102 -495 0
-203 427 456 0
99 129 -270 0
83 276 -418 0
181 459 -473 0
-200 380 384 0
-58 -389 447 0
-150 -185 -192 0
-62 -350 484 0
-133 -205 464 0
36 -173 334 0
167 -423 -430 0
258 329 382 0
13 49 -207 0
-58 -167 -301 0
117 -249 398 0
-269 -329 356 0
-76 154 245 0
-43 -189 -369 0
-220 304 -437 0
-355 372 -386 0
-182 423 475 0
131 169 -252 0
-65 -180 249 0
-102 -331 -481 0
-147 474 -493 0
-47 -426 -436 0
-202 262 479 0
-140 269 385 0
357 377 437 0
-147 -371 447 0
190 245 -286 0
-323 331 418 0
-77 -340 -405 0
35 -64 -328 0
-51 115 -181 0
109 -302 -416 0
161 428 447 0
-50 -269 301 0
170 458 485 0
-200 -407 496 0
130 152 -381 0
-57 -357 466 0
87 -298 -391 0
-47 57 -448 0
-49 87 424 0
-224 -298 373 0
-21 -56 -423 0
-25 -152 -301 0
-204 -216 269 0
-186 266 -279 0
-87 -467 -494 0
77 373 -402 0
-272 374 -476 0
147 -343 372 0
243 304 440 0
1 -408 -453 0
228 315 448 0
-330 -415 -427 0
-144 -148 -184 0
-48 -495 497 0
21 -167 415 0
98 -190 377 0
304 -309 466 0
166 173 -366 0
69 -487 494 0
-222 312 450 0
10 237 -388 0
-101 -129 135 0
-105 194 -437 0
-93 382 -452 0
-286 -323 -354 0
-11 -162 463 0
316 -399 404 0
-113 235 407 0
19 126 365 0
-225 -334 406 0
-134 178 480 0
-173 -214 420 0
211 -337 -496 0
352 364 -491 0
-31 -388 432 0
-44 68 -322 0
64 -210 -384 0
95 -130 271 0
-62 -303 -382 0
55 -82 -216 0
-102 376 426 0
184 -234 -342 0
-213 341 382 0
35 -125 -170 0
-2 -236 478 0
84 -166 314 0
134 306 -420 0
-231 -325 -377 0
-258 -330 450 0
-65 -148 -165 0
224 -368 -380 0
30 -334 -448 0
-269 -430 -459 0
-65 327 -471 0
373 -384 -493 0
-113 156 -213 0
40 -215 358 0
7 157 -261 0
-180 330 -345 0
203 -332 347 0
113 128 -227 0
-223 354 358 0
-217 288 -309 0
68 -93 258 0
-105 -118 -398 0
47 -317 -459 0
255 -282 -427 0
-19 387 -397 0
171 300 -347 0
30 43 -437 0
-44 279 -350 0
106 -113 -186 0
27 346 -413 0
-110 123 196 0
-232 -235 -283 0
-76 -77 170 0
-148 -263 292 0
-54 58 324 0
45 261 -478 0
242 292 -388 0
-110 -314 410 0
-99 -239 -451 0
-14 -191 499 0
-340 -347 -473 0
216 421 429 0
-84 -320 -484 0
-424 456 485 0
4 -127 377 0
54 172 196 0
-200 267 432 0
-48 99 352 0
-220 353 441 0
-279 289 299 0
-7 89 -442 0
-136 -417 -490 0
36 -64 98 0
-220 -275 -438 0
-237 321 464 0
-3 -185 -474 0
-201 -203 -231 0
115 -429 -492 0
-103 199 -483 0
-274 -474 -487 0
151 -368 -481 0
-277 -345 391 0
-156 -247 302 0
204 -427 -468 0
-80 -280 495 0
-224 240 -367 0
-112 -170 381 0
96 -189 -217 0
48 179 -230 0
237 -365 -430 0
144 223 337 0
-87 108 -294 0
-67 203 -418 0
118 169 -232 0
-210 259 430 0
11 -455 -482 0
-46 347 434 0
73 332 468 0
71 -210 -418 0
-64 -212 -336 0
185 -370 -479 0
12 179 327 0
-101 219 -259 0
108 -141 221 0
-144 427 434 0
232 -234 481 0
18 -82 371 0
14 -324 425 0
174 202 403 0
71 -174 242 0
-128 245 315 0
27 -312 -384 0
57 -227 435 0
170 239 272 0
-105 -178 -211 0
131 -388 -401 0
183 -432 -489 0
-228 256 -429 0
122 -207 377 0
-17 -65 -220 0
24 -119 164 0
-165 -344 401 0
-57 -217 -290 0
65 212 -447 0
2 -159 -431 0
176 -292 378 0
-99 175 -380 0
-20 -110 262 0
84 -251 266 0
201 361 435 0
-394 400 498 0
-68 242 -388 0
64 -180 -275 0
238 -370 -404 0
-219 231 324 0
-79 -402 -416 0
186 -302 -431 0
120 361 -486 0
163 173 266 0
121 -132 -201 0
66 264 -344 0
77 112 -402 0
-35 99 315 0
1 -127 254 0
1 -79 -218 0
205 298 484 0
-75 169 454 0
-266 329 -369 0
257 406 -424 0
107 416 424 0
-70 291 -345 0
12 -195 -439 0
-77 107 336 0
86 -244 348 0
100 -405 406 0
-6 251 376 0
85 168 377 0
-240 276 -345 0
-145 225 -484 0
-30 47 241 0
246 -446 449 0
-102 -333 -451 0
23 168 -389 0
-286 395 435 0
-4 -112 -315 0
216 -306 439 0
-99 -115 -415 0
69 -409 421 0
8 -91 -263 0
89 175 217 0
59 207 254 0
-31 -133 434 0
84 -267 478 0
21 -205 -295 0
285 330 437 0
45 229 438 0
-106 471 -489 0
163 195 -244 0
291 328 -360 0
-305 -344 -345 0
-129 -251 437 0
-180 376 -499 0
-63 -129 407 0
114 -364 431 0
-5 166 412 0
138 -350 -353 0
321 -414 -450 0
172 -253 276 0
45 80 395 0
5 159 -331 0
177 -371 465 0
-77 79 128 0
29 -424 489 0
-190 -210 -441 0
399 477 -482 0
-370 -381 383 0
55 -281 -286 0
396 428 -481 0
-72 154 -333 0
-66 -250 274 0
-387 393 -487 0
-148 366 -488 0
231 473 -499 0
-331 360 456 0
-76 319 -328 0
98 -109 -496 0
-99 -420 -487 0
-239 -356 446 0
9 -161 -243 0
215 -225 -233 0
-12 55 373 0
200 -377 429 0
13 -27 -86 0
94 97 -356 0
371 -483 -496 0
182 -344 -418 0
115 -178 -252 0
-88 -363 442 0
-95 134 325 0
209 -264 -440 0
-33 -184 309 0
-33 40 -304 0
169 413 480 0
171 -292 -337 0
-171 244 421 0
194 196 455 0
-223 -291 -483 0
-141 172 -382 0
64 73 -353 0
52 65 -371 0
-94 -408 -420 0
138 -352 372 0
-125 -187 -285 0
18 -173 -408 0
-312 407 -456 0
-9 -138 -176 0
-177 414 -446 0
-118 -278 298 0
-73 -351 412 0
-310 -337 488 0
207 -270 -425 0
-146 217 -393 0
135 -237 -471 0
226 257 314 0
-113 -362 402 0
-4 370 -412 0
201 -389 467 0
-274 384 -430 0
-98 233 377 0
-148 298 340 0
35 65 -389 0
109 214 -251 0
-14 237 -470 0
-290 352 -439 0
-145 157 197 0
-271 -312 -336 0
-196 -332 356 0
108 408 -439 0
-116 232 409 0
-163 495 -498 0
-7 -79 82 0
-11 -32 494 0
-85 341 -418 0
-144 -359 -477 0
-174 -323 -330 0
56 -238 292 0
74 104 -201 0
116 128 431 0
92 -201 -237 0
-143 446 -480 0
-28 289 367 0
-6 -122 392 0
151 -197 -253 0
-156 -172 -236 0
-251 -284 -372 0
-149 -162 -431 0
-109 252 -376 0
159 -301 330 0
64 -98 -277 0
55 -62 -265 0
-133 139 -264 0
238 326 470 0
-100 247 273 0
-30 -93 -324 0
70 -416 -442 0
123 -354 367 0
-225 323 455 0
-149 287 394 0
-8 80 159 0
24 49 233 0
-60 182 -346 0
-282 -360 -420 0
-134 162 -343 0
-19 251 382 0
-11 45 388 0
-330 345 -364 0
9 28 351 0
31 -36 443 0
-314 -329 -351 0
-15 -150 -343 0
2 115 307 0
-108 148 167 0
-14 289 -296 0
-27 -327 -467 0
165 -231 -432 0
51 -317 348 0
63 191 484 0
-1 428 -439 0
-134 -175 433 0
1 -47 199 0
-144 -200 -372 0
144 -157 -247 0
-3 -45 463 0
-297 -365 -401 0
256 -470 -496 0
5 -296 -348 0
-76 266 -433 0
60 -72 -453 0
8 11 -434 0
279 329 -479 0
19 146 -356 0
-312 -361 413 0
276 -324 375 0
-18 -271 413 0
167 -178 -261 0
-238 287 -461 0
-229 -377 438 0
-228 302 303 0
271 333 -434 0
-118 128 473 0
-216 -340 385 0
183 -239 311 0
-115 305 391 0
144 218 -464 0
-31 -97 -253 0
12 -225 382 0
228 301 -424 0
-86 149 -478 0
20 -86 171 0
-91 -428 -433 0
56 -133 230 0
-47 156 -195 0
50 -56 83 0
116 272 -421 0
-29 -230 242 0
-243 447 -483 0
-225 415 -467 0
-96 482 -492 0
173 -293 -480 0
-378 -391 462 0
-5 20 74 0
-47 143 -422 0
-55 -108 277 0
46 -86 -361 0
311 394 -466 0
58 340 448 0
187 -202 467 0
-1 202 -274 0
64 335 -428 0
-75 -401 -443 0
265 -279 -430 0
-3 -276 -411 0
113 -187 379 0
-192 -197 -331 0
-86 167 -425 0
-51 417 418 0
-97 244 -424 0
242 296 384 0
26 -45 284 0
-165 227 255 0
117 -181 271 0
-106 -273 -448 0
-189 -345 368 0
-267 322 -499 0
115 213 -449 0
283 289 -373 0
-269 334 -472 0
53 -316 -380 0
-40 -297 379 0
-72 261 -348 0
10 -223 233 0
114 -180 -286 0
-41 -131 -446 0
-278 -383 -415 0
-204 457 493 0
349 458 -491 0
-98 -371 423 0
45 -253 310 0
222 263 -343 0
-206 -225 333 0
233 -385 437 0
120 211 -269 0
347 -352 -363 0
-36 289 -315 0
165 -193 -242 0
48 95 146 0
-163 -216 234 0
-99 215 -444 0
-20 -67 417 0
55 414 -492 0
126 277 424 0
50 -240 -301 0
-114 -244 344 0
-120 -126 249 0
-295 -464 -483 0
154 -268 402 0
74 403 -413 0
311 417 462 0
135 247 -313 0
192 -344 350 0
-219 -318 -475 0
-21 157 -180 0
-171 -293 -415 0
-23 241 276 0
-107 -308 -374 0
204 360 458 0
-315 406 -460 0
-47 187 385 0
223 275 388 0
77 331 416 0
-69 -244 -430 0
92 -361 470 0
-35 -167 -315 0
40 -248 463 0
-222 382 -448 0
179 -181 -314 0
-72 -180 321 0
44 284 492 0
197 254 366 0
-88 -95 -320 0
-91 -155 351 0
50 -348 -369 0
1 465 -493 0
-103 272 -458 0
-89 -253 -398 0
3 -303 -458 0
224 365 -431 0
6 147 336 0
-273 278 -457 0
70 -238 383 0
-57 -347 359 0
-21 199 209 0
78 -347 348 0
-183 -189 263 0
-74 -221 465 0
4 -23 209 0
-32 51 -110 0
-30 50 342 0
153 -175 -230 0
337 402 475 0
-110 124 201 0
55 147 -399 0
202 -242 486 0
-121 -146 350 0
-68 -435 494 0
240 431 -453 0
287 480 500 0
168 280 496 0
275 404 -488 0
-39 144 429 0
86 -254 -434 0
-36 -215 224 0
-86 -188 -391 0
-154 -355 378 0
228 -295 -310 0
217 432 449 0
-106 230 305 0
-305 434 471 0
210 -308 392 0
-95 -248 -472 0
-75 -256 412 0
-55 -295 -413 0
193 -279 322 0
