c description: Random 3-CNF over 500 variables and 2129 clauses
c generator: CNFgen (0.9.6)
c copyright: (C) 2012-2026 Massimo Lauria <massimo.lauria@uniroma1.it>
c url: https://massimolauria.net/cnfgen
c command line: cnfgen randkcnf 3 500 2129
c
p cnf 500 2129
-6 -43 -112 0
-72 216 -260 0
-172 206 -276 0
28 163 475 0
-95 -274 -397 0
103 -207 -370 0
-338 -387 411 0
-86 -173 355 0
-111 -196 397 0
-134 -251 258 0
211 -286 451 0
69 -91 -147 0
-187 397 498 0
56 -85 -265 0
-6 -161 -405 0
-167 -317 -428 0
125 212 -305 0
148 188 -409 0
-388 390 -450 0
61 -335 466 0
-143 186 -229 0
163 -186 410 0
182 245 408 0
315 -489 490 0
36 -109 398 0
36 -248 258 0
97 -439 451 0
-255 480 486 0
128 -261 358 0
84 142 251 0
-19 305 -409 0
-12 -158 -284 0
342 426 441 0
231 -300 307 0
-67 -88 264 0
-32 -92 316 0
-72 118 164 0
89 -284 -437 0
-142 -425 494 0
-35 -179 -443 0
187 386 -443 0
-53 -140 240 0
-12 -305 -406 0
129 316 -362 0
141 264 422 0
-9 192 -302 0
270 -274 468 0
-151 -348 -357 0
115 -247 290 0
137 336 -431 0
-105 -313 422 0
211 240 -380 0
-163 322 -366 0
-105 -204 -325 0
-306 -349 -460 0
-173 183 -309 0
231 273 321 0
49 -278 380 0
-140 -262 -315 0
85 -352 371 0
-109 -149 -388 0
54 -277 433 0
23 -113 -304 0
-110 159 -351 0
-74 87 -317 0
200 205 208 0
137 -293 307 0
111 -212 -383 0
-75 -110 303 0
-26 -85 -291 0
239 -251 362 0
-169 -334 -366 0
-104 245 -490 0
-61 93 265 0
-65 -151 -269 0
-29 -55 -388 0
110 146 354 0
164 260 -455 0
-40 -428 498 0
122 -181 430 0
103 -132 -343 0
251 -409 461 0
-16 -161 302 0
-21 23 -426 0
140 288 -486 0
-181 372 390 0
30 -118 -385 0
259 435 -473 0
192 381 454 0
-88 126 280 0
111 -145 331 0
-260 350 370 0
111 -237 -376 0
1 123 -221 0
-394 -426 492 0
14 -407 -428 0
-31 213 218 0
-34 -119 481 0
-29 338 -453 0
38 -119 411 0
-230 -332 339 0
-67 131 -154 0
-381 408 436 0
-79 -235 -399 0
-243 -371 487 0
-234 -255 402 0
299 -460 485 0
-90 -101 482 0
-97 122 -263 0
-70 146 -247 0
-98 400 -462 0
25 480 496 0
-378 398 -438 0
-77 -470 -473 0
-108 280 -380 0
-380 -423 -459 0
13 408 -416 0
236 -306 -352 0
160 -211 -332 0
-87 -439 -457 0
296 380 -485 0
121 195 -416 0
-109 327 469 0
103 -386 406 0
-110 344 -474 0
-44 162 -494 0
30 77 -474 0
205 276 383 0
-143 -274 -433 0
136 -226 416 0
209 312 414 0
26 120 -446 0
-72 149 -252 0
-18 -218 319 0
-321 -356 417 0
-48 113 -301 0
-54 244 344 0
-91 201 -414 0
86 -106 -218 0
6 -166 -335 0
186 -343 445 0
123 -314 341 0
268 -301 400 0
55 225 493 0
-121 -192 -215 0
-339 -454 -484 0
134 -264 -334 0
-95 -227 288 0
-38 -382 441 0
1 53 -407 0
-64 -306 -467 0
-136 142 -392 0
-129 -195 305 0
265 -355 -388 0
141 175 261 0
-309 -448 -474 0
131 409 -425 0
211 -248 -291 0
-36 -393 395 0
128 -390 433 0
71 -150 401 0
26 -262 -316 0
57 178 -353 0
106 343 -464 0
41 -122 -408 0
134 -149 -373 0
375 -382 458 0
149 -299 -454 0
195 448 -465 0
-189 387 -483 0
-183 -226 -369 0
175 302 -395 0
5 -149 -301 0
-17 -158 -258 0
-50 -98 202 0
-165 -183 423 0
-97 118 -476 0
-100 -165 256 0
342 -475 487 0
159 -373 447 0
-189 -228 -496 0
-117 329 442 0
-26 385 500 0
94 121 -230 0
94 96 326 0
27 -333 -394 0
146 -189 -195 0
83 -116 398 0
-75 183 -311 0
-194 -218 -333 0
-23 -400 -439 0
-7 -315 340 0
-88 200 -489 0
76 -279 -369 0
-155 327 -379 0
213 -336 -409 0
-85 301 360 0
153 -242 -446 0
-143 358 -496 0
72 -110 290 0
108 -152 207 0
-355 -358 478 0
159 -219 395 0
-207 274 -404 0
-13 -239 316 0
-173 268 350 0
62 103 325 0
49 239 370 0
-295 323 -429 0
136 -144 -178 0
-120 196 239 0
-107 211 -447 0
180 357 449 0
-34 -102 -485 0
202 203 302 0
-90 -310 -419 0
70 -110 -212 0
-104 -158 -165 0
-53 -423 475 0
48 71 -104 0
-163 189 -483 0
-17 67 -406 0
88 -335 -409 0
-145 -285 -351 0
116 -174 303 0
-53 -97 175 0
210 -295 337 0
-171 -234 413 0
-95 -383 -409 0
18 -123 466 0
-92 240 385 0
-264 405 475 0
401 -430 435 0
92 -471 473 0
68 -368 456 0
274 -385 435 0
-23 274 -365 0
-122 -147 151 0
-66 -70 201 0
-44 217 340 0
-142 251 386 0
86 208 -371 0
342 361 414 0
236 292 454 0
-162 301 -500 0
-119 259 -440 0
78 -127 485 0
75 338 -379 0
-96 180 -436 0
133 -177 -252 0
-277 301 -399 0
-132 -343 -444 0
-35 -317 -448 0
160 351 -395 0
104 238 -468 0
-70 311 -442 0
12 165 214 0
-85 145 -264 0
47 204 -448 0
-58 -88 -372 0
-107 291 441 0
129 292 403 0
36 -181 195 0
89 -132 422 0
102 -469 -494 0
116 -176 -424 0
283 -334 383 0
88 217 -480 0
-92 -284 486 0
67 -77 -389 0
-224 -303 372 0
60 -283 325 0
51 107 157 0
140 336 364 0
222 -251 355 0
-89 -264 -288 0
-97 396 454 0
-255 -323 479 0
183 -213 -322 0
-11 50 100 0
1 152 -237 0
-104 242 -421 0
-178 262 312 0
-15 -101 -129 0
-87 219 431 0
-72 81 479 0
-54 307 488 0
-107 -234 -369 0
-144 -186 -287 0
179 -209 -321 0
50 129 -356 0
-161 258 -396 0
281 -366 -437 0
-18 -212 -424 0
251 326 432 0
-210 -401 -429 0
-217 264 -458 0
85 -310 -325 0
-93 -254 266 0
98 276 490 0
-69 -267 -440 0
-171 212 487 0
-295 323 -328 0
-169 -345 492 0
163 244 -315 0
-262 -425 -451 0
-44 -145 192 0
-175 -216 -455 0
-118 125 281 0
-50 103 -176 0
105 188 -271 0
20 234 330 0
-36 -104 283 0
104 259 431 0
-382 384 442 0
-83 151 -312 0
212 356 -468 0
33 137 326 0
-62 67 -141 0
-131 -270 476 0
-151 -312 -401 0
304 -378 469 0
-428 495 -499 0
-21 -88 -158 0
27 -127 -354 0
107 -126 268 0
213 323 439 0
57 -222 -261 0
-200 -274 -423 0
-184 -312 -378 0
15 80 181 0
59 179 324 0
137 198 362 0
-87 97 257 0
-214 383 462 0
48 -233 392 0
-277 -340 -420 0
104 226 342 0
82 243 -290 0
-17 -227 -332 0
14 57 151 0
69 162 225 0
169 -205 -418 0
8 115 -184 0
59 307 489 0
134 439 479 0
18 44 -157 0
166 -364 -451 0
-32 -187 477 0
31 -100 -440 0
-153 318 -416 0
196 300 -308 0
170 -299 304 0
-110 210 356 0
408 -419 430 0
-131 -233 360 0
27 28 66 0
-60 -235 -342 0
44 -252 -433 0
-60 105 -159 0
-16 70 163 0
163 181 219 0
-250 -391 482 0
87 170 423 0
-65 370 480 0
42 -129 243 0
112 -205 403 0
-105 225 296 0
-80 215 -291 0
116 -238 500 0
47 -155 -242 0
-76 87 481 0
328 432 491 0
-6 25 223 0
-61 -354 449 0
56 -186 -457 0
-83 -271 -485 0
219 270 433 0
-72 -192 -407 0
-289 475 -497 0
178 231 -313 0
125 -186 -448 0
253 292 -445 0
146 187 -498 0
-279 -352 383 0
95 238 406 0
231 285 -374 0
123 -167 -314 0
190 431 479 0
-125 -222 -429 0
112 -154 161 0
109 -426 493 0
-53 -343 -367 0
29 -102 -480 0
329 -380 425 0
145 -162 -487 0
-107 -249 -264 0
-61 451 458 0
-54 -252 343 0
-176 -281 367 0
-117 -131 -427 0
295 351 376 0
-162 -408 -457 0
-115 -268 -349 0
-111 337 -441 0
-98 -106 137 0
51 -352 -437 0
-63 -212 -427 0
-196 322 389 0
221 242 500 0
-166 -354 495 0
88 176 196 0
108 -130 400 0
195 228 340 0
43 303 -490 0
-244 334 -345 0
-44 416 -490 0
2 338 478 0
-77 -179 -285 0
105 173 295 0
154 317 475 0
6 229 -476 0
166 -288 -339 0
109 275 -331 0
248 337 -362 0
-123 -145 -211 0
221 248 424 0
-298 -450 477 0
-185 -196 -198 0
-32 73 -348 0
134 227 444 0
-87 -395 -489 0
53 224 -492 0
198 255 -349 0
-20 -159 247 0
86 185 -246 0
324 -385 -397 0
-96 -133 -246 0
140 -428 -470 0
60 -111 121 0
213 -235 497 0
-18 158 309 0
21 -165 -223 0
-146 370 -425 0
-8 355 -440 0
-218 -351 445 0
57 -316 414 0
-220 321 459 0
137 -304 344 0
195 254 394 0
164 371 -422 0
114 -134 331 0
-301 370 -462 0
-66 -301 -364 0
-198 -346 476 0
213 -318 -479 0
367 411 -416 0
-24 67 -314 0
62 127 -313 0
-37 -264 -429 0
-14 -389 -444 0
-195 224 437 0
-317 -352 437 0
109 167 229 0
89 138 468 0
81 188 -447 0
34 325 362 0
-112 330 -372 0
-154 -169 419 0
-125 367 -412 0
325 353 404 0
-89 -349 416 0
316 419 421 0
-215 439 -493 0
187 -248 -405 0
-150 206 353 0
-222 227 -329 0
-133 -441 468 0
116 334 -433 0
167 -281 475 0
51 170 191 0
-110 423 435 0
-147 301 312 0
261 279 -459 0
113 -313 -447 0
26 39 -434 0
-112 -257 -429 0
-225 -377 -498 0
-449 463 468 0
11 81 -408 0
-180 -200 477 0
-203 -254 -457 0
31 216 -237 0
-80 -136 -191 0
96 -150 482 0
184 241 383 0
-64 351 -374 0
224 -302 476 0
-76 244 -376 0
-242 -298 500 0
98 -218 -498 0
25 -43 -398 0
177 369 -497 0
-247 -299 315 0
-43 186 -298 0
-254 255 422 0
-99 -340 -452 0
-54 -139 -379 0
-40 -79 -141 0
253 -273 494 0
291 303 362 0
-105 -254 -271 0
-192 -197 -450 0
-111 -224 -481 0
99 -184 327 0
252 316 373 0
94 227 -264 0
-84 158 -410 0
-43 93 150 0
-167 -270 -324 0
-73 -180 216 0
-2 -175 -199 0
5 183 306 0
273 -465 494 0
-10 -272 -495 0
-245 322 -382 0
-218 -449 500 0
-147 419 435 0
65 -141 346 0
284 -290 -367 0
137 440 487 0
242 244 -358 0
-276 446 -498 0
-181 -195 232 0
-275 -278 284 0
281 -428 -430 0
84 -344 -441 0
313 -381 -449 0
-221 270 -448 0
23 -110 484 0
79 -112 -287 0
175 -381 -460 0
-287 -405 -499 0
-78 -262 293 0
-191 222 -367 0
-117 165 -352 0
-126 166 187 0
-12 -78 -252 0
-3 284 -396 0
-105 -124 -171 0
154 484 -497 0
115 116 300 0
-180 418 -488 0
-26 -44 148 0
137 -228 -482 0
-81 -322 374 0
94 224 274 0
-26 229 472 0
121 124 375 0
-204 -214 -415 0
168 253 396 0
228 289 -365 0
-79 146 245 0
54 -94 -290 0
44 314 -398 0
55 -437 -440 0
-169 200 -414 0
-102 -174 -203 0
278 427 488 0
19 -96 -460 0
-167 -427 -461 0
-66 197 489 0
207 -362 -424 0
-210 -257 -488 0
-204 -233 -343 0
-186 293 -376 0
282 -428 498 0
-21 74 -377 0
-92 -286 401 0
-260 280 468 0
117 -283 407 0
-263 296 328 0
-37 -302 -419 0
80 -89 401 0
-321 -347 403 0
-103 -140 405 0
-127 280 -283 0
80 -126 -214 0
7 -224 249 0
108 181 -220 0
29 98 -386 0
-251 -274 -395 0
15 20 -421 0
-88 -211 -230 0
43 -269 500 0
-39 -341 453 0
285 -327 431 0
-226 348 -398 0
-183 268 -355 0
173 -194 -331 0
28 -79 -340 0
12 116 -327 0
-147 231 432 0
-103 -155 215 0
165 -453 -478 0
42 -240 374 0
173 -391 441 0
145 -217 231 0
-65 -225 -465 0
-84 -203 -256 0
-141 228 309 0
-190 -348 379 0
-30 160 -230 0
-27 -52 -131 0
-21 158 212 0
61 106 -186 0
-78 -205 -296 0
223 409 477 0
192 -298 -397 0
55 -156 -499 0
-267 -443 -498 0
-120 -203 437 0
-65 -72 -325 0
64 259 322 0
91 -227 244 0
-14 236 488 0
-270 -347 373 0
-6 46 152 0
-78 -88 -331 0
59 -331 361 0
98 -183 -319 0
191 -286 -466 0
61 -166 240 0
17 80 -369 0
63 177 491 0
-116 -317 -416 0
287 329 -392 0
163 268 367 0
-88 -180 -333 0
32 216 -272 0
103 -302 338 0
-189 452 471 0
179 193 -227 0
-100 107 -227 0
45 182 314 0
280 -417 -447 0
206 -371 -401 0
-336 362 -468 0
235 417 -470 0
-165 -171 -245 0
95 -251 400 0
-130 -283 -493 0
-111 270 314 0
-213 319 -369 0
-24 167 442 0
-158 253 330 0
44 281 362 0
-101 -110 -152 0
25 148 -397 0
67 81 326 0
205 228 248 0
-3 172 311 0
111 -288 -447 0
-122 314 463 0
239 389 410 0
-133 -169 -480 0
209 281 497 0
-238 390 392 0
-293 -361 -454 0
-265 407 481 0
-261 299 -422 0
1 253 -471 0
236 311 -472 0
316 -336 -482 0
-53 -239 -314 0
-237 -388 -490 0
158 216 243 0
355 -457 464 0
-119 438 451 0
3 -387 388 0
-246 -314 373 0
42 -252 396 0
251 351 352 0
108 -354 -464 0
-116 211 212 0
244 250 -354 0
-126 -131 -417 0
187 226 473 0
-16 91 -435 0
-189 -256 -348 0
-205 219 -329 0
18 38 408 0
206 -342 485 0
-162 -204 482 0
-13 -431 -450 0
229 334 -402 0
311 360 -463 0
-192 268 -485 0
-2 100 -174 0
-20 -454 -480 0
-171 -254 273 0
192 205 -367 0
125 347 387 0
-196 -463 -500 0
36 82 -402 0
146 -226 -318 0
-78 281 429 0
-124 -182 335 0
294 -336 -369 0
-278 -339 -470 0
66 -331 -408 0
210 -239 -372 0
-205 409 -473 0
36 226 270 0
398 399 457 0
-54 -140 391 0
-60 124 407 0
-141 216 420 0
-301 -344 346 0
-2 -315 459 0
-26 -218 421 0
121 -239 -436 0
342 417 477 0
-115 -225 425 0
-223 356 -497 0
-43 -134 485 0
-228 252 -444 0
-95 -192 -418 0
-325 -374 391 0
236 -350 368 0
29 -135 -257 0
322 -332 -449 0
-399 414 -467 0
146 -272 490 0
358 468 499 0
-408 479 -487 0
-42 -138 -343 0
110 167 357 0
-91 -101 354 0
-132 388 477 0
-142 240 -287 0
-144 -208 380 0
-73 -186 345 0
-40 385 -411 0
8 -14 474 0
434 478 498 0
334 456 -494 0
-43 99 -238 0
24 328 -397 0
-66 90 406 0
-25 -235 419 0
-45 -135 490 0
-165 -202 476 0
-57 93 365 0
-46 98 -216 0
65 198 -346 0
-204 257 -269 0
-212 326 339 0
-146 309 417 0
-4 341 477 0
93 99 -104 0
-359 -416 -449 0
-112 253 -355 0
-172 -176 202 0
-170 -390 449 0
166 -231 -364 0
-5 52 -208 0
-177 283 431 0
-187 -203 -359 0
-220 -261 365 0
313 322 382 0
-244 331 397 0
-123 -247 -300 0
151 286 -398 0
-81 -337 344 0
227 403 -418 0
-205 -324 470 0
177 -198 -333 0
34 -210 288 0
200 -431 -436 0
263 -291 438 0
195 -255 -468 0
-181 326 484 0
161 230 247 0
-151 -156 314 0
70 -238 455 0
267 464 -478 0
-74 95 301 0
157 -204 -292 0
88 -200 -499 0
-199 222 -457 0
-43 -183 -319 0
10 77 240 0
-179 -364 415 0
-159 327 370 0
134 198 313 0
-268 309 353 0
-288 -488 499 0
318 355 -488 0
-56 -213 -417 0
-266 -333 393 0
-104 -310 364 0
83 -232 329 0
86 411 -436 0
58 250 -254 0
210 -219 -334 0
-160 248 -441 0
-178 -228 438 0
-164 309 -344 0
192 -219 494 0
3 77 -332 0
-211 -235 275 0
69 75 156 0
-151 -321 -375 0
-155 -211 401 0
71 -91 435 0
-125 -324 381 0
27 -142 -202 0
41 -47 -161 0
-142 336 393 0
-52 -379 416 0
75 197 404 0
81 131 -435 0
-23 245 466 0
-27 -211 -348 0
-42 156 -262 0
298 492 497 0
102 377 446 0
104 163 -343 0
73 -84 -216 0
368 382 464 0
253 -296 406 0
-96 -206 308 0
324 328 -474 0
-212 -303 404 0
162 -201 -268 0
27 329 -421 0
325 332 -338 0
24 -293 426 0
114 -188 375 0
-132 -141 -282 0
-30 -244 -343 0
-199 -444 475 0
-190 -277 297 0
-101 -159 -346 0
33 -195 498 0
10 -196 -464 0
-110 325 -400 0
-142 -218 272 0
146 262 -333 0
-38 -232 -378 0
-134 -197 473 0
-222 -242 294 0
-121 -248 447 0
95 -182 -476 0
111 323 -328 0
-268 -302 -407 0
157 -447 -484 0
115 -395 460 0
377 -463 467 0
140 149 245 0
170 445 447 0
-106 -192 -298 0
2 22 148 0
-110 288 -425 0
156 407 -497 0
-16 -278 305 0
181 -376 472 0
-209 -456 -471 0
134 -159 491 0
94 118 435 0
-47 248 -403 0
-203 -255 -457 0
-82 -273 424 0
58 411 491 0
-156 164 172 0
-335 -389 495 0
-198 -391 -436 0
-152 -278 -457 0
-78 250 -485 0
-113 -143 -264 0
15 -73 398 0
92 -132 458 0
41 155 304 0
93 -135 -436 0
30 414 439 0
-47 239 314 0
216 346 430 0
321 -327 -356 0
65 83 450 0
116 121 -231 0
-43 86 106 0
-212 -422 -469 0
-24 102 302 0
-154 340 416 0
72 214 -311 0
39 319 322 0
214 -365 475 0
76 -114 361 0
-43 -92 -111 0
63 307 400 0
41 -324 -352 0
291 304 337 0
-138 -235 -405 0
344 -461 -488 0
-22 -76 -446 0
-83 -427 483 0
104 254 -255 0
66 -124 271 0
217 -326 -498 0
-184 -209 -394 0
-191 199 239 0
-93 -179 -194 0
13 -138 -437 0
-53 -409 493 0
31 -238 418 0
159 -199 -302 0
-45 456 -485 0
56 94 -417 0
156 243 -397 0
-20 42 153 0
-152 238 -413 0
30 -193 203 0
-19 78 -494 0
-48 298 -459 0
107 208 -278 0
179 226 370 0
25 236 -406 0
-118 -127 453 0
180 -204 -358 0
-18 -33 -71 0
-361 -431 464 0
120 -280 -399 0
-86 182 -439 0
142 379 446 0
-72 138 454 0
3 236 393 0
7 285 -328 0
-360 -409 -487 0
156 -368 -460 0
-74 168 -213 0
152 277 368 0
-38 442 -446 0
22 -87 -107 0
29 -176 -264 0
105 -195 -209 0
71 110 -319 0
-112 117 -193 0
62 77 -390 0
45 282 -423 0
-95 304 -393 0
426 461 477 0
-51 -156 -414 0
33 307 -422 0
34 38 220 0
-134 -138 -210 0
-239 352 -409 0
-42 304 -345 0
-70 318 -335 0
109 140 -335 0
-200 -216 403 0
-9 395 464 0
32 333 417 0
71 -383 -446 0
-13 257 -346 0
69 -375 -433 0
-4 256 336 0
-81 -98 -113 0
-34 262 -411 0
213 229 435 0
-140 -182 307 0
-9 284 349 0
59 -301 464 0
117 233 -370 0
-54 218 412 0
22 199 486 0
-119 374 387 0
-32 -306 419 0
75 199 475 0
-48 -246 -495 0
-56 325 -402 0
73 132 412 0
21 -187 -298 0
-88 -130 199 0
65 -158 408 0
-15 268 319 0
263 -373 -471 0
-110 161 -197 0
249 395 399 0
-74 260 -378 0
248 272 489 0
-80 96 -301 0
-10 -46 386 0
-118 -171 -343 0
26 241 373 0
-262 -388 -458 0
-64 -208 -332 0
-87 -95 306 0
-30 -56 371 0
69 -287 443 0
92 -176 -227 0
-83 237 -335 0
310 -330 -379 0
-1 -125 -127 0
112 271 367 0
68 -352 363 0
-201 250 -365 0
110 290 -426 0
-297 415 -424 0
332 -353 484 0
-216 -430 -481 0
-58 401 439 0
-110 -247 425 0
16 -54 108 0
-275 -348 -443 0
-44 -283 -466 0
-141 242 364 0
144 246 -450 0
-58 269 -427 0
-9 -317 -358 0
162 337 340 0
-200 299 457 0
-33 103 -446 0
-2 -70 -240 0
279 406 -444 0
-127 -180 283 0
59 122 155 0
-80 217 -454 0
-192 -225 -324 0
214 -417 -437 0
317 345 -446 0
-75 -149 399 0
-165 239 -308 0
-36 -65 424 0
261 -282 -319 0
-174 232 -429 0
80 -207 483 0
208 432 -476 0
241 295 -352 0
78 299 430 0
230 393 -435 0
-263 290 384 0
190 -211 340 0
50 -114 -189 0
22 44 210 0
-57 220 -467 0
-172 -490 -496 0
-87 127 -174 0
-20 -418 449 0
178 -226 -285 0
-169 -441 478 0
-8 112 -346 0
-110 112 -213 0
-13 -41 267 0
30 -80 -219 0
-7 -358 -409 0
-228 -295 -472 0
45 140 -228 0
99 -237 -385 0
-72 -114 265 0
-43 -58 99 0
-18 194 -251 0
-132 163 482 0
-416 451 493 0
174 241 249 0
329 336 393 0
233 407 -423 0
-32 -60 226 0
110 397 487 0
-325 481 -493 0
148 343 -384 0
129 400 427 0
67 278 412 0
379 -439 -491 0
-127 344 438 0
46 -260 382 0
-209 364 384 0
58 274 -437 0
-19 -45 -498 0
-137 -163 -229 0
-17 127 -160 0
59 -124 494 0
-64 -279 -331 0
-306 -334 -362 0
43 365 476 0
232 276 489 0
-37 -87 -103 0
191 -212 -408 0
-9 -39 -218 0
21 -53 433 0
-75 -151 368 0
473 -494 496 0
-23 56 -381 0
-78 182 -342 0
43 -79 304 0
-70 300 -423 0
154 311 397 0
-19 322 327 0
60 -118 465 0
142 308 459 0
25 155 -269 0
-98 -373 435 0
-63 268 -464 0
-30 229 -277 0
-32 -278 -294 0
-135 333 -362 0
16 -403 425 0
-76 -168 366 0
-211 233 391 0
141 206 -369 0
-242 -260 -310 0
-84 95 199 0
-268 -419 -420 0
-173 215 481 0
-3 -74 -140 0
28 83 -408 0
189 -206 324 0
-142 171 435 0
-4 -84 -325 0
-226 -301 439 0
1 158 -275 0
-59 104 -106 0
-296 307 393 0
38 -74 284 0
89 170 -467 0
-24 -27 95 0
-79 -147 -290 0
-46 -265 -344 0
7 147 -298 0
163 239 334 0
-69 411 -469 0
253 275 307 0
196 313 483 0
67 187 297 0
-9 -47 278 0
84 -108 191 0
44 202 -469 0
113 -217 -431 0
167 332 333 0
202 411 -498 0
176 248 262 0
250 319 -443 0
-140 -162 -195 0
-65 -119 283 0
-57 453 492 0
-49 89 151 0
-152 161 -340 0
-153 289 334 0
137 186 -228 0
-341 459 -495 0
-286 471 492 0
6 -303 421 0
1 366 403 0
-112 -280 344 0
47 97 -259 0
246 350 -467 0
213 248 -380 0
-51 177 -378 0
10 118 191 0
-55 59 401 0
-331 -354 373 0
-196 -335 -496 0
-43 79 162 0
67 -144 -491 0
-204 214 -457 0
-32 117 -482 0
204 -405 432 0
1 -116 320 0
17 183 308 0
-122 -174 323 0
-44 335 375 0
-9 -144 157 0
25 437 487 0
-58 -235 -469 0
56 103 -236 0
23 83 -429 0
-89 -280 -378 0
-99 114 -493 0
78 298 402 0
21 -223 -465 0
22 163 472 0
87 -242 313 0
-28 83 265 0
-48 -177 213 0
-23 191 -449 0
-32 -173 -348 0
-65 -298 445 0
-227 442 -473 0
236 -264 309 0
-241 376 -475 0
-41 -391 -400 0
-53 -68 -367 0
-86 -122 -414 0
128 -175 216 0
66 -285 -463 0
228 -258 431 0
-91 -140 440 0
-73 118 232 0
4 95 -142 0
177 387 -499 0
-42 210 -455 0
-52 -195 496 0
-278 -420 -478 0
36 -43 57 0
-398 473 477 0
-220 263 272 0
232 -233 -363 0
-132 -169 402 0
-25 119 157 0
-201 -325 401 0
441 449 -473 0
-243 -287 300 0
174 -220 346 0
-130 267 333 0
-157 241 -353 0
-209 -223 -264 0
-81 -309 -449 0
5 -150 471 0
-44 -178 -377 0
-221 279 -310 0
89 413 461 0
162 -180 -387 0
8 -298 405 0
97 -270 -389 0
155 244 322 0
-216 -313 -342 0
46 -312 -330 0
208 291 -324 0
58 -116 -435 0
199 -369 448 0
-148 200 -274 0
180 188 217 0
-61 313 -361 0
-124 193 -360 0
-368 -384 461 0
65 230 -411 0
28 100 -195 0
205 -209 -473 0
162 -322 347 0
156 252 -289 0
-7 332 420 0
136 253 -456 0
-39 -199 -454 0
-269 -349 355 0
17 -86 -328 0
286 290 -397 0
-396 431 -464 0
-3 115 192 0
102 -145 -196 0
184 294 395 0
66 -190 -237 0
-57 -168 -177 0
-86 144 -280 0
-21 -45 266 0
-71 -202 403 0
-97 -172 -263 0
60 -126 -184 0
123 234 444 0
146 228 429 0
10 344 -380 0
-104 -146 -173 0
-51 62 -411 0
-267 325 387 0
194 -351 390 0
338 -367 -439 0
136 320 379 0
-125 388 396 0
151 163 386 0
191 -192 -436 0
-340 -364 -440 0
73 168 283 0
-130 145 224 0
-162 -191 460 0
93 -296 -336 0
-186 229 -416 0
-198 371 481 0
-78 -238 -311 0
85 101 406 0
23 -174 303 0
20 -466 -484 0
191 413 -450 0
251 358 463 0
173 215 436 0
27 -137 265 0
61 -369 -484 0
-144 158 -469 0
-183 -408 424 0
-5 87 -170 0
-120 -154 -178 0
28 -185 -419 0
-6 -50 -425 0
137 139 356 0
-123 298 415 0
28 -61 -381 0
-14 -246 -480 0
-185 -282 347 0
-75 82 129 0
-147 -248 -343 0
-33 393 -440 0
36 -70 -311 0
-30 225 378 0
-57 -228 -431 0
-61 216 394 0
-156 -293 336 0
-220 -244 487 0
-54 342 354 0
6 -25 -229 0
107 -244 -414 0
-237 419 -465 0
162 264 -365 0
-69 -178 -417 0
-1 341 -494 0
-78 131 494 0
-76 -340 -446 0
336 387 403 0
51 -231 287 0
2 340 -412 0
15 248 -387 0
10 91 -179 0
14 -58 370 0
275 -304 -415 0
10 -72 122 0
28 206 362 0
170 386 465 0
19 44 63 0
92 138 484 0
52 -64 -165 0
-24 270 316 0
-405 -426 -450 0
101 338 390 0
-329 339 -358 0
-3 -346 -487 0
363 -368 385 0
252 -371 469 0
70 -245 -314 0
-6 176 444 0
-94 236 -339 0
-134 203 343 0
-91 111 450 0
27 406 -449 0
-2 -291 -367 0
24 -224 433 0
-216 402 449 0
-54 115 -401 0
-155 183 -316 0
-60 -335 -427 0
-114 -425 -478 0
101 195 393 0
-5 25 285 0
3 -460 -485 0
-357 -363 -414 0
-243 255 317 0
-3 341 -420 0
127 -147 -485 0
140 177 497 0
23 -260 -308 0
6 255 -387 0
-191 -202 461 0
119 348 460 0
-196 264 -268 0
81 128 235 0
-46 391 -480 0
-60 -89 -384 0
-65 -146 499 0
-216 422 467 0
-186 373 -472 0
23 53 136 0
129 -268 493 0
58 111 -192 0
-40 104 -255 0
85 -212 -351 0
77 -311 -401 0
58 -197 -245 0
-386 455 -481 0
-78 -262 269 0
64 231 -388 0
17 -193 -206 0
-36 -282 -427 0
15 47 365 0
-10 -320 -443 0
81 -354 488 0
-72 160 486 0
-95 -214 495 0
-156 -321 -481 0
-93 -160 -211 0
59 306 -445 0
22 -32 -340 0
100 -188 475 0
166 -429 -493 0
29 -358 -490 0
200 -334 -391 0
-186 306 402 0
-65 84 140 0
-147 172 244 0
297 -348 -461 0
-3 24 453 0
-72 -230 -329 0
-9 -70 -340 0
85 357 434 0
35 38 352 0
97 -382 -481 0
51 242 -315 0
115 -454 463 0
-248 310 -454 0
38 -237 477 0
268 -294 -324 0
184 -300 383 0
-195 -314 -455 0
-212 322 442 0
192 310 473 0
-284 -312 -377 0
12 31 329 0
-56 329 -457 0
-26 -271 372 0
-249 -317 -370 0
236 -243 309 0
81 -238 -265 0
-63 405 -491 0
-175 426 -476 0
-33 55 -154 0
-92 255 480 0
-68 314 440 0
65 -413 461 0
75 189 452 0
64 345 -500 0
-22 -80 -421 0
-156 -354 -379 0
160 271 370 0
165 -365 -384 0
-230 -271 387 0
73 -104 183 0
-213 223 265 0
170 347 -427 0
-30 174 -175 0
-51 -82 -444 0
-144 -199 489 0
73 184 -360 0
-60 -108 474 0
145 171 -366 0
75 -107 306 0
-55 366 441 0
-8 322 406 0
3 -59 -119 0
220 -291 -493 0
145 170 455 0
237 392 500 0
118 -220 -325 0
35 -270 -273 0
-26 -450 452 0
-81 280 -423 0
-181 336 -387 0
-6 200 215 0
-244 250 -324 0
59 -251 -275 0
147 221 292 0
95 -142 -238 0
174 246 290 0
-68 158 -498 0
-234 -294 -431 0
-128 277 460 0
77 -257 354 0
246 -337 -381 0
30 277 -423 0
-343 -368 485 0
187 253 431 0
232 358 -461 0
-32 -39 86 0
-57 139 -171 0
-44 176 -269 0
220 -248 391 0
-42 -270 -450 0
-249 -397 462 0
-35 196 -414 0
63 152 412 0
160 356 -499 0
-166 184 337 0
-167 389 461 0
-130 -159 317 0
-249 371 -430 0
-57 -120 -483 0
37 -110 276 0
204 381 401 0
35 147 458 0
-114 341 -367 0
42 -281 -286 0
182 201 234 0
144 159 -454 0
348 -407 491 0
-132 -327 488 0
96 -129 -358 0
164 168 324 0
41 -320 404 0
52 89 458 0
-363 -397 486 0
95 107 -170 0
-74 75 360 0
-41 216 391 0
203 -377 -500 0
163 349 405 0
-34 -161 349 0
2 88 360 0
111 -160 -482 0
-153 253 292 0
70 261 -404 0
-37 -78 483 0
4 -246 -325 0
35 315 331 0
132 331 -389 0
175 302 -437 0
132 197 231 0
-230 -365 -437 0
253 -434 500 0
112 157 191 0
264 -446 450 0
-33 -68 320 0
325 -348 -451 0
95 190 489 0
-20 -22 288 0
183 227 -323 0
-132 245 333 0
217 -355 459 0
-94 -412 -481 0
-119 -201 217 0
76 -274 288 0
223 -326 -365 0
289 338 -391 0
-128 -408 423 0
141 339 -428 0
-175 -216 -421 0
57 -465 486 0
-94 -146 397 0
-78 146 -450 0
-107 -202 342 0
-16 -97 -382 0
57 236 -359 0
-193 482 -496 0
-99 180 426 0
-33 -107 -262 0
-68 -416 467 0
26 -187 413 0
-30 47 -418 0
-170 294 355 0
-253 371 -484 0
-22 -303 -311 0
80 330 494 0
-370 394 -397 0
74 -161 379 0
100 445 498 0
-245 -479 489 0
-90 101 -357 0
-100 -105 269 0
-20 -163 -379 0
165 455 494 0
2 78 492 0
-37 -110 210 0
146 -367 422 0
-268 -383 -407 0
-150 235 468 0
329 -415 -488 0
-259 -283 -396 0
-116 -282 434 0
105 325 329 0
141 201 -337 0
96 179 365 0
22 -359 -464 0
-95 -413 436 0
-72 -355 469 0
157 -240 257 0
-162 -238 -449 0
-35 62 -208 0
-126 330 358 0
142 366 489 0
-13 -99 -474 0
-274 420 -479 0
253 263 430 0
285 -415 -472 0
-149 -381 -442 0
95 -330 -436 0
88 -297 -336 0
-195 304 348 0
151 -167 -340 0
260 -319 -359 0
63 135 -477 0
-94 177 -442 0
-212 392 -432 0
-48 109 419 0
8 -157 -158 0
-69 -287 457 0
-85 -227 -430 0
-52 334 -463 0
302 -364 -450 0
33 165 314 0
-45 368 426 0
-180 191 351 0
-2 219 497 0
-44 197 -440 0
-119 -160 192 0
245 261 274 0
236 479 486 0
-201 415 -463 0
-78 -309 337 0
-107 -401 459 0
3 267 -336 0
101 150 236 0
298 420 -423 0
177 315 -434 0
-107 139 -236 0
159 -244 314 0
-112 -174 -261 0
-213 391 421 0
56 103 230 0
220 -236 460 0
209 -263 -496 0
-129 -284 384 0
-78 -233 -418 0
87 300 -448 0
154 318 -370 0
81 -98 141 0
184 196 485 0
-101 121 278 0
76 251 483 0
52 294 462 0
45 279 365 0
-295 361 -365 0
-163 -255 375 0
-98 -159 -477 0
-57 -410 438 0
-32 355 -400 0
35 -163 -369 0
-47 237 254 0
-142 -182 486 0
-134 219 220 0
-13 144 -444 0
21 256 -418 0
-42 -116 493 0
-70 -174 500 0
-118 -173 475 0
130 -181 -210 0
21 309 -455 0
95 149 -461 0
-43 -90 223 0
124 385 411 0
52 156 356 0
-241 364 -493 0
-105 164 -239 0
-90 267 -419 0
-309 -392 434 0
-144 -183 -426 0
69 -164 443 0
-269 304 478 0
86 -320 -415 0
8 -123 -387 0
40 -164 -365 0
11 -147 -320 0
228 -252 408 0
-66 267 395 0
-8 146 -315 0
269 -304 -477 0
-82 172 242 0
-115 333 -437 0
52 -353 -412 0
131 304 344 0
65 -90 -279 0
-139 -190 200 0
-75 86 -98 0
-153 170 -322 0
207 -412 -465 0
51 -146 -340 0
92 268 -321 0
-11 -171 -302 0
-24 162 445 0
280 -376 -492 0
-26 308 -493 0
40 273 -479 0
-151 386 -480 0
26 167 285 0
-10 222 -340 0
-112 -174 362 0
246 331 -482 0
-101 351 -422 0
-30 -39 190 0
-310 431 435 0
202 -213 -394 0
66 -245 479 0
-171 -301 -366 0
-291 367 458 0
-301 303 -497 0
118 201 315 0
127 293 -319 0
261 -329 346 0
136 -164 284 0
218 368 406 0
280 344 407 0
159 188 277 0
-102 108 468 0
-132 413 -416 0
151 158 -462 0
-126 211 -354 0
135 234 247 0
140 330 -396 0
-41 -46 134 0
30 -46 -242 0
-55 253 350 0
337 -395 -493 0
-50 337 -347 0
-329 382 439 0
291 295 433 0
-109 276 -294 0
-85 326 497 0
-209 -218 -236 0
-79 -351 -359 0
285 371 401 0
-24 -380 462 0
65 213 -453 0
194 -303 -312 0
-305 307 -444 0
-189 339 404 0
-41 118 214 0
183 -270 -334 0
-125 -206 218 0
62 -315 403 0
153 277 -329 0
-225 354 -359 0
101 -157 201 0
220 356 458 0
-109 169 -412 0
-95 -112 279 0
-170 -187 -264 0
332 -398 486 0
-123 239 473 0
-170 -175 -474 0
18 -231 432 0
-66 -205 319 0
-44 -278 -343 0
-379 -487 -490 0
-222 265 -436 0
404 461 492 0
-123 -165 -167 0
-110 148 -356 0
16 168 437 0
-18 -444 485 0
-342 395 498 0
-138 -164 -193 0
12 169 222 0
-92 -259 -376 0
-33 -197 303 0
192 -219 -498 0
2 -108 177 0
67 90 95 0
124 -149 257 0
252 -417 430 0
-6 -182 360 0
138 214 329 0
27 -107 -336 0
17 328 411 0
20 48 -62 0
-24 -112 320 0
-42 133 -164 0
86 187 -260 0
210 358 -478 0
-236 239 -413 0
162 -246 248 0
-241 286 -356 0
-2 -422 -478 0
-228 -354 363 0
-47 120 -423 0
-235 425 460 0
99 191 367 0
118 -124 -159 0
15 -19 200 0
214 -265 -373 0
-298 311 379 0
-187 -302 469 0
-60 -180 -227 0
-95 239 -429 0
280 -404 475 0
60 314 -458 0
-387 416 -423 0
-313 -378 415 0
184 -388 -406 0
-57 451 -470 0
-104 -287 351 0
-302 472 478 0
-168 252 437 0
-43 107 -471 0
-207 283 461 0
-2 175 318 0
-152 -192 469 0
-59 -333 372 0
290 -297 -376 0
-35 -157 -455 0
-12 69 -487 0
-24 66 185 0
12 254 352 0
-173 -314 392 0
-221 299 430 0
7 -244 -424 0
-10 135 -271 0
-94 -113 -318 0
-22 43 402 0
155 -299 441 0
392 -416 492 0
188 245 333 0
163 298 -300 0
-241 374 484 0
-309 -377 439 0
311 -416 449 0
-1 -161 -343 0
-294 -388 -394 0
297 333 380 0
-32 -326 396 0
125 181 437 0
-321 -460 496 0
11 224 -255 0
-44 -174 -245 0
79 133 408 0
-77 -148 271 0
4 -117 455 0
186 -297 359 0
-98 274 -497 0
-129 207 -293 0
4 161 492 0
301 -344 -351 0
60 377 451 0
-86 -148 -309 0
-163 -223 -265 0
-60 -378 -379 0
-348 442 480 0
123 270 326 0
-79 -82 357 0
244 -347 -356 0
76 -203 -447 0
-5 263 406 0
31 -390 484 0
30 -67 -450 0
-5 317 457 0
-53 -193 463 0
-80 -109 312 0
15 -196 276 0
-306 -361 -427 0
-52 273 288 0
-18 181 -420 0
109 -362 -402 0
79 -410 435 0
-296 -456 485 0
49 60 451 0
85 226 -252 0
112 301 -420 0
48 -62 -193 0
-225 -329 429 0
-5 230 301 0
97 -155 274 0
-27 329 -487 0
52 58 411 0
-39 155 337 0
-208 -274 -426 0
69 -97 111 0
-274 -376 -454 0
8 -74 -317 0
304 -341 428 0
41 259 -353 0
-85 296 393 0
90 212 -281 0
-276 -286 -412 0
204 302 432 0
53 236 281 0
173 -403 -431 0
-5 -243 374 0
101 336 -405 0
-263 267 -321 0
-177 226 -338 0
140 424 432 0
118 -261 -460 0
78 -232 -367 0
-168 -297 -309 0
-240 -362 387 0
124 -162 -454 0
139 193 305 0
-351 -446 488 0
-340 477 -489 0
167 174 332 0
84 -208 -240 0
-26 -152 -407 0
125 211 -485 0
55 378 -482 0
262 302 -435 0
-22 61 324 0
198 203 -420 0
-3 -125 483 0
-125 416 444 0
22 165 272 0
-101 -318 -418 0
111 424 -440 0
5 247 -500 0
-82 -142 -204 0
-22 286 -460 0
-17 -193 321 0
-34 -44 441 0
-301 -354 -372 0
89 -290 375 0
20 -260 329 0
166 -304 471 0
-161 450 487 0
76 -395 -422 0
-125 -206 475 0
271 -369 439 0
-53 -80 226 0
184 213 294 0
5 355 -436 0
82 -291 416 0
125 351 353 0
-50 231 480 0
-107 -228 -354 0
-48 305 -478 0
28 200 320 0
219 245 452 0
105 134 -461 0
-203 -302 -380 0
198 263 -307 0
39 -221 439 0
-177 218 392 0
105 -219 -296 0
-13 54 293 0
-179 -294 475 0
-266 267 -483 0
6 24 -457 0
108 263 -464 0
-90 -355 -420 0
211 285 -354 0
-93 -301 464 0
-245 304 332 0
-101 -219 257 0
-85 -324 -473 0
-18 -194 -373 0
-376 445 493 0
156 -439 -459 0
-116 122 -408 0
186 -428 470 0
165 168 -205 0
4 245 457 0
16 199 -293 0
-197 -267 -493 0
-113 348 349 0
85 -167 441 0
-14 67 83 0
-27 256 -347 0
-75 85 255 0
-1 59 72 0
-122 -150 -261 0
191 264 -444 0
-35 -130 -359 0
-126 164 -210 0
-68 -244 462 0
-30 -315 439 0
111 208 -357 0
-215 283 387 0
286 -313 446 0
-165 -184 341 0
116 -187 -477 0
111 229 -469 0
111 123 410 0
-404 457 468 0
-150 -246 400 0
370 378 457 0
4 104 -209 0
57 115 -336 0
19 68 -302 0
-140 -187 -347 0
87 449 455 0
180 211 -471 0
95 288 313 0
119 -181 277 0
-81 -434 -494 0
266 -427 492 0
1 425 -488 0
303 -384 -414 0
-141 -193 466 0
-127 304 -476 0
-155 -233 362 0
-20 182 -316 0
117 -143 474 0
-211 256 394 0
-165 236 443 0
374 -454 -494 0
86 422 496 0
-292 -388 446 0
189 -206 -413 0
282 -432 446 0
153 234 348 0
-108 -364 -440 0
-45 -110 -498 0
95 102 -342 0
-182 278 426 0
-227 -280 -393 0
-100 254 -500 0
67 -328 -414 0
257 325 344 0
-13 253 -262 0
-118 -280 413 0
144 -152 247 0
28 -73 329 0
-245 333 467 0
8 -150 -458 0
170 279 -306 0
39 383 -456 0
250 411 -479 0
343 389 -401 0
-256 295 316 0
-82 -163 -381 0
5 107 444 0
73 -278 -473 0
90 -97 422 0
-119 -316 -432 0
-71 85 -119 0
87 201 -447 0
118 -360 -427 0
-112 -368 491 0
-36 -100 -128 0
13 361 368 0
-14 -378 471 0
153 -295 456 0
-56 147 -459 0
-224 237 -262 0
91 323 -407 0
4 59 -110 0
-11 355 429 0
57 -141 197 0
-44 -46 66 0
20 -156 247 0
-262 -448 491 0
14 243 444 0
2 414 -418 0
-220 -410 -444 0
294 -299 -399 0
159 -307 377 0
176 -286 -494 0
-13 -127 303 0
-270 347 478 0
-191 -196 -488 0
-178 -472 -494 0
-71 -429 -498 0
188 242 353 0
142 440 492 0
-44 153 -392 0
6 57 -161 0
-9 108 492 0
35 353 411 0
45 215 -276 0
25 290 294 0
-288 -413 500 0
17 -213 355 0
293 -370 -434 0
-256 -358 438 0
-127 184 355 0
81 242 -422 0
21 -196 -205 0
15 -42 44 0
-48 121 358 0
277 404 448 0
-44 110 262 0
-114 296 453 0
105 133 190 0
-83 -342 -435 0
-25 112 333 0
380 -404 -448 0
-127 264 -336 0
-197 315 398 0
-4 -13 488 0
137 179 -226 0
51 -59 -105 0
-14 -292 363 0
-99 351 471 0
59 -130 380 0
-35 -309 -355 0
47 66 130 0
-10 51 432 0
120 406 -429 0
-131 -180 207 0
-108 -338 460 0
135 -491 -498 0
176 -215 345 0
-90 -343 -350 0
35 -271 -480 0
317 410 -469 0
66 -108 110 0
-143 154 -226 0
-42 356 -380 0
59 155 -259 0
-1 126 -477 0
247 -334 397 0
36 -152 235 0
-214 -301 475 0
41 210 -404 0
105 -115 -480 0
-72 229 490 0
24 -179 -214 0
-366 425 -494 0
67 202 -459 0
17 -150 -190 0
-44 -378 -456 0
-149 -200 -373 0
-178 292 306 0
-15 320 -389 0
16 -174 297 0
-101 298 490 0
167 182 356 0
35 -106 364 0
112 -234 -500 0
92 122 333 0
58 245 294 0
-106 117 420 0
-160 244 450 0
132 373 496 0
-194 271 446 0
-17 -47 -333 0
-81 156 -500 0
56 -142 259 0
-120 -363 -466 0
175 -229 -281 0
139 -285 -388 0
95 -261 333 0
-82 -208 -263 0
184 -302 -341 0
-26 30 -81 0
37 -215 284 0
286 367 402 0
-109 263 -377 0
-82 -219 -292 0
-29 -451 -482 0
