c description: Random 3-CNF over 500 variables and 2129 clauses
c generator: CNFgen (0.9.6)
c copyright: (C) 2012-2026 Massimo Lauria <massimo.lauria@uniroma1.it>
c url: https://massimolauria.net/cnfgen
c command line: cnfgen randkcnf 3 500 2129
c
p cnf 500 2129
-66 139 -150 0
5 84 447 0
-38 142 -267 0
286 414 -492 0
147 163 477 0
-113 358 390 0
-49 154 -225 0
47 -99 -106 0
120 399 411 0
-98 255 -340 0
-83 -279 -391 0
-103 113 -129 0
-48 332 -483 0
35 -286 -361 0
-105 -137 424 0
91 -292 369 0
49 -141 301 0
35 189 216 0
2 -478 480 0
-155 -234 429 0
-209 -239 -279 0
124 181 189 0
214 -450 457 0
197 -361 467 0
-361 365 431 0
-49 -386 -431 0
-133 197 415 0
-194 -375 394 0
314 454 483 0
-66 -316 438 0
42 182 -446 0
-164 244 430 0
-48 130 367 0
-165 206 -355 0
109 -167 -326 0
-313 -317 -446 0
168 -248 -329 0
23 204 -291 0
-2 -74 -272 0
153 -394 421 0
-36 -255 -366 0
250 386 387 0
-24 -254 262 0
-298 -413 436 0
26 -462 473 0
-5 210 -352 0
-46 387 475 0
-14 142 215 0
172 429 480 0
197 297 -441 0
-23 -418 497 0
-409 414 488 0
109 236 347 0
51 -184 464 0
-50 97 331 0
54 -79 -124 0
-132 232 411 0
-120 153 408 0
172 252 -287 0
-96 97 242 0
-66 -273 474 0
-172 -251 279 0
-52 -399 490 0
269 462 488 0
-218 -390 -483 0
-183 -269 407 0
-395 -398 425 0
-80 300 -406 0
159 -204 327 0
-245 343 355 0
105 -311 -319 0
-79 141 -275 0
118 340 365 0
-154 218 -252 0
193 280 327 0
104 257 -381 0
47 -229 312 0
-5 -315 -386 0
-124 163 -473 0
-281 -315 432 0
305 355 -372 0
-35 91 -340 0
24 389 -456 0
-161 434 -459 0
-35 -76 331 0
-16 -254 333 0
10 305 401 0
-49 266 -468 0
264 335 395 0
-186 -236 380 0
57 -250 321 0
45 183 -258 0
352 -483 494 0
-35 104 -227 0
-188 269 296 0
103 -199 -254 0
-74 100 -219 0
-343 384 -408 0
87 274 -336 0
213 253 -431 0
326 -386 465 0
155 -207 -383 0
104 361 -464 0
-12 44 -117 0
314 -426 -462 0
-172 -193 438 0
38 -310 348 0
404 -425 432 0
-264 -317 -395 0
107 -291 -425 0
-211 -328 -447 0
-52 -97 -294 0
-89 381 416 0
-93 -321 441 0
-327 404 493 0
-181 -414 -450 0
104 -159 -315 0
-141 153 -310 0
-56 165 -321 0
17 421 -425 0
-4 28 -66 0
-92 176 -296 0
128 -155 -490 0
-266 -310 -439 0
253 -391 -409 0
-194 213 343 0
-264 372 436 0
-170 419 -437 0
53 -180 487 0
42 44 -241 0
13 24 -104 0
-83 -162 -228 0
104 -303 -392 0
236 -307 467 0
-127 -251 401 0
198 -256 379 0
-201 -260 352 0
-112 124 458 0
219 -250 -290 0
-9 -17 130 0
284 -300 -492 0
117 -248 -317 0
143 -216 -385 0
-185 -198 -468 0
259 343 -344 0
-149 -219 322 0
-121 169 -472 0
-258 332 349 0
84 151 461 0
44 -92 303 0
-233 -239 -417 0
-56 121 -369 0
-139 -225 246 0
-138 -426 -433 0
87 102 -404 0
74 -93 -145 0
-49 -68 -76 0
63 118 208 0
160 -302 396 0
-196 361 461 0
27 406 438 0
-59 -155 -253 0
140 280 378 0
128 226 310 0
77 95 -434 0
-198 -204 329 0
-29 137 446 0
138 -154 -158 0
210 -228 406 0
-21 238 463 0
-272 -331 482 0
-128 -151 -370 0
226 253 500 0
102 262 266 0
57 -144 488 0
44 -360 -436 0
100 165 291 0
-58 93 384 0
27 37 281 0
-12 -314 355 0
112 -127 275 0
21 66 -77 0
64 135 379 0
-174 -313 318 0
312 -401 -471 0
6 31 245 0
31 -197 293 0
78 352 380 0
-54 124 387 0
-177 -243 -351 0
34 -38 -334 0
204 -346 444 0
-48 111 417 0
10 -401 442 0
8 -133 336 0
205 274 -460 0
162 -184 364 0
448 -489 496 0
257 -358 376 0
-15 -146 167 0
78 -96 207 0
-10 148 429 0
31 -191 -444 0
30 92 -317 0
70 216 467 0
17 177 296 0
36 250 -417 0
-308 367 434 0
176 226 421 0
102 -432 466 0
-285 390 -430 0
-177 -305 -477 0
204 -428 -471 0
200 -367 398 0
179 -243 -475 0
27 250 -456 0
52 -420 -447 0
72 -212 334 0
37 -147 -386 0
-54 132 -208 0
28 -465 469 0
11 70 -186 0
-14 -20 61 0
-340 437 -487 0
-84 -198 -371 0
133 -206 437 0
-164 249 -281 0
-85 -242 360 0
51 -78 462 0
289 349 388 0
168 -188 415 0
-256 -318 -423 0
17 -200 471 0
-155 327 386 0
76 85 -397 0
9 12 88 0
-355 -422 484 0
48 221 -364 0
374 -404 489 0
1 -47 207 0
-19 40 -334 0
-257 265 -300 0
187 -449 -486 0
119 164 -197 0
-2 -451 468 0
9 -305 -316 0
-178 -201 -390 0
-246 -307 334 0
182 -249 284 0
-136 -178 -445 0
-103 329 -475 0
-96 119 304 0
-245 -335 400 0
50 145 440 0
181 338 -462 0
-134 -351 365 0
-171 186 500 0
-86 -147 -241 0
-126 -378 -380 0
-235 237 289 0
190 -230 -418 0
-41 333 491 0
317 475 485 0
-105 -109 -275 0
-237 -284 388 0
241 368 458 0
364 397 -400 0
9 197 -333 0
-89 474 -478 0
-117 -257 273 0
70 -292 316 0
171 186 -218 0
1 4 104 0
-174 -205 332 0
17 -84 -426 0
34 435 499 0
31 -72 -175 0
134 165 425 0
193 -294 332 0
173 -190 -249 0
-98 139 -241 0
154 181 -385 0
63 -120 317 0
-354 428 -439 0
83 155 -346 0
28 -249 374 0
-124 -260 406 0
154 -190 -461 0
267 389 481 0
229 -266 492 0
297 -348 426 0
-245 272 500 0
14 110 356 0
200 224 -298 0
-22 -218 239 0
-2 -154 275 0
75 104 -177 0
-46 -70 233 0
-8 -75 394 0
-69 305 -441 0
-37 -48 258 0
-71 -388 406 0
169 204 -428 0
-12 113 -337 0
-68 130 251 0
-32 253 452 0
17 -95 -407 0
211 314 477 0
-214 -256 330 0
-24 -387 432 0
-158 429 -491 0
-339 -421 -428 0
275 -395 -443 0
-55 -74 156 0
-180 405 441 0
185 -306 456 0
48 -220 -262 0
146 -211 367 0
131 -331 -353 0
-171 -204 -303 0
88 159 437 0
91 375 495 0
283 318 -426 0
149 -254 -311 0
-134 -239 -460 0
167 212 -390 0
30 -393 -472 0
-184 257 294 0
11 52 -229 0
18 -307 312 0
-210 239 -282 0
-351 -392 474 0
-211 -388 -421 0
-67 -294 -437 0
-29 -199 425 0
-6 -328 424 0
-150 -169 -381 0
-186 365 -462 0
-312 441 449 0
211 277 -475 0
-280 -326 480 0
107 277 287 0
205 396 -402 0
-30 148 -369 0
23 101 291 0
-8 178 -347 0
-153 -328 -330 0
-150 -261 -288 0
278 -400 408 0
77 115 -122 0
27 -333 -471 0
67 -209 -489 0
-166 273 302 0
-256 450 498 0
112 -193 -207 0
-7 -50 -129 0
-228 244 279 0
-46 -322 -406 0
102 -230 -326 0
220 -276 -420 0
122 183 398 0
-185 254 360 0
387 -401 495 0
-366 407 471 0
-29 -113 144 0
-31 294 400 0
-24 150 487 0
59 121 -204 0
-5 152 406 0
-17 299 -365 0
114 -170 -319 0
-167 331 -345 0
166 -421 451 0
-131 298 -327 0
109 203 -352 0
-183 212 -348 0
-91 -104 156 0
-36 -80 -397 0
22 -210 -421 0
-120 -198 -367 0
-54 -81 -482 0
39 206 323 0
21 -24 -155 0
-38 92 270 0
220 -321 471 0
-199 -219 -370 0
-76 232 286 0
-32 -246 255 0
115 -302 314 0
-248 264 -361 0
23 -91 127 0
-157 -195 396 0
180 199 -229 0
-244 -394 485 0
230 -299 -310 0
149 253 377 0
-178 -206 367 0
241 244 339 0
32 -350 442 0
129 -198 -427 0
-62 170 484 0
-131 334 -426 0
44 -184 -368 0
-42 304 -405 0
-45 374 458 0
284 394 473 0
127 265 -276 0
-14 268 486 0
107 208 410 0
69 -168 -466 0
188 -281 -434 0
-6 -211 -440 0
-156 368 -438 0
-144 -278 372 0
85 178 -316 0
158 -315 370 0
-36 447 498 0
-87 -175 -267 0
-4 -139 -265 0
-154 -264 -315 0
-98 255 410 0
-236 -301 -380 0
174 185 -213 0
-265 411 499 0
-76 -327 463 0
172 -325 360 0
129 -387 -477 0
115 269 -287 0
-254 297 299 0
86 269 -436 0
-81 -92 267 0
166 185 276 0
-239 -251 483 0
103 -233 282 0
-224 -267 438 0
259 -264 -364 0
198 -237 -244 0
-50 -239 437 0
-47 -137 442 0
123 -164 -172 0
53 -119 -233 0
-81 131 261 0
305 -326 -402 0
-90 -140 309 0
25 313 415 0
94 -344 364 0
1 251 297 0
-82 -92 142 0
-296 361 491 0
-190 -239 -345 0
43 109 -430 0
-171 262 368 0
-24 -397 487 0
20 90 221 0
-252 -356 451 0
387 -453 498 0
-42 -257 378 0
37 -103 220 0
94 428 -487 0
16 235 441 0
-195 -368 426 0
69 -165 325 0
-151 -202 224 0
140 364 400 0
58 264 397 0
97 -256 -263 0
-206 265 -360 0
-153 216 433 0
-284 -290 347 0
58 -115 -260 0
-26 238 -383 0
-166 169 -349 0
-46 -312 337 0
108 -213 -301 0
-38 -75 -101 0
-82 -225 418 0
4 -151 435 0
118 226 -471 0
154 -248 419 0
-130 131 -314 0
54 -137 -344 0
147 -377 388 0
311 380 -414 0
-52 -184 -399 0
96 343 -431 0
217 232 -362 0
-220 354 369 0
7 79 -189 0
-400 -441 456 0
89 -246 -409 0
-40 64 137 0
-63 -72 155 0
71 -426 -488 0
-161 -162 233 0
150 177 249 0
-96 175 -351 0
100 -363 -487 0
-74 96 101 0
-51 -68 -216 0
88 -115 -252 0
161 426 471 0
216 310 368 0
267 -407 -465 0
221 255 307 0
-39 -189 -247 0
-106 -158 -304 0
-21 -155 341 0
311 405 -485 0
126 265 -386 0
-60 -429 471 0
124 -357 -478 0
-57 170 -397 0
348 430 465 0
19 110 395 0
85 -393 -469 0
-138 210 -213 0
49 170 198 0
16 188 -362 0
-50 66 237 0
-338 379 -414 0
-161 -229 442 0
-66 -90 432 0
-40 -207 329 0
112 -114 455 0
83 -202 -380 0
44 -86 -146 0
-27 -96 -159 0
256 -319 -477 0
-63 333 490 0
-159 -269 423 0
45 -355 438 0
123 249 -257 0
118 -440 -444 0
110 251 -361 0
-283 -406 -448 0
-6 283 419 0
-52 -224 364 0
-180 288 -345 0
-155 270 325 0
-127 -178 -397 0
18 48 464 0
83 302 395 0
-85 -307 346 0
349 395 -467 0
-54 -76 235 0
160 184 -396 0
78 -81 -161 0
-102 125 -231 0
256 -265 439 0
-156 -194 -199 0
263 -289 297 0
-28 -86 392 0
118 312 400 0
-148 212 278 0
169 178 -473 0
137 -234 452 0
-42 -98 -447 0
-42 -197 -377 0
44 144 216 0
50 54 302 0
-203 -301 381 0
-40 -83 -411 0
-151 -394 447 0
-26 377 -445 0
74 -146 463 0
-20 22 296 0
-105 225 -291 0
-171 -316 -396 0
193 -243 -277 0
-3 90 191 0
-71 -191 324 0
62 -111 469 0
332 420 -459 0
63 356 429 0
299 -378 -391 0
-288 -336 -377 0
-179 223 -401 0
3 -76 360 0
-270 469 -488 0
36 -256 -315 0
-106 238 403 0
48 -359 500 0
21 35 373 0
57 -254 -261 0
-12 -28 377 0
-243 247 -383 0
-94 -123 462 0
-148 -188 -387 0
-73 -217 252 0
221 -442 -499 0
-12 78 -438 0
160 -237 336 0
-94 109 -478 0
45 -90 332 0
127 -159 242 0
-255 427 -496 0
30 256 -415 0
47 282 426 0
-87 286 336 0
188 373 422 0
50 185 -342 0
66 -106 201 0
59 -206 495 0
-41 192 -424 0
-182 261 -290 0
-276 390 -486 0
15 -28 -191 0
-56 410 -444 0
-128 -230 -445 0
55 83 109 0
-52 122 229 0
69 -238 -447 0
20 -178 353 0
-44 -75 258 0
217 303 417 0
168 -261 -330 0
-68 92 400 0
168 -293 -465 0
56 -176 -322 0
157 177 267 0
73 412 477 0
-28 352 383 0
-122 128 -417 0
210 -277 -296 0
-72 257 -330 0
1 -243 277 0
-105 388 -417 0
-356 -369 -478 0
-148 200 -319 0
62 278 -306 0
-112 192 -352 0
-168 173 -435 0
176 317 -320 0
-3 -189 -497 0
-76 -228 388 0
51 -128 195 0
97 -232 313 0
251 -488 496 0
52 -268 487 0
315 -404 427 0
11 -41 -197 0
30 64 395 0
251 435 -480 0
1 -347 419 0
-211 309 427 0
-223 -297 363 0
-58 -135 473 0
115 -327 382 0
-7 -143 -356 0
104 -120 253 0
-136 262 -418 0
66 -377 474 0
218 278 334 0
-270 -322 -340 0
241 -257 465 0
-56 226 -433 0
-257 -473 -492 0
10 -97 -432 0
84 -95 122 0
155 216 332 0
191 292 -350 0
38 -107 272 0
-105 180 328 0
15 -270 391 0
84 -129 334 0
-81 333 357 0
-87 -393 497 0
241 260 -432 0
-19 -205 279 0
185 -333 -462 0
263 354 -481 0
-30 85 -232 0
37 -357 461 0
56 87 -213 0
-95 311 327 0
-85 -246 -368 0
-195 246 -293 0
421 445 -486 0
-146 368 -492 0
-378 -395 442 0
98 170 -439 0
-127 -139 -158 0
-50 -83 334 0
95 302 323 0
-258 281 -303 0
-49 160 -389 0
-213 -230 -341 0
-73 145 342 0
-32 146 -153 0
12 13 126 0
36 137 170 0
-323 418 434 0
-247 316 -360 0
41 69 408 0
59 230 -309 0
-194 317 461 0
86 146 -500 0
-103 183 -353 0
167 -241 243 0
191 -244 254 0
-21 -130 199 0
-35 297 442 0
349 454 497 0
72 -178 -236 0
-3 -46 372 0
34 -49 -403 0
-185 326 -489 0
-122 -146 -432 0
171 233 297 0
-97 -451 -455 0
281 304 -431 0
-129 274 442 0
65 255 356 0
-63 -277 -285 0
-2 191 -337 0
-219 228 -428 0
21 67 -153 0
131 -245 -385 0
-328 342 -369 0
12 -123 -481 0
14 -156 -232 0
223 -227 -411 0
152 206 -486 0
226 -376 -470 0
200 217 312 0
9 -86 173 0
40 220 -417 0
-161 322 438 0
233 -256 327 0
87 -394 463 0
35 -336 461 0
11 116 146 0
-105 -258 374 0
243 -317 496 0
-413 -471 -484 0
46 -192 -411 0
76 212 331 0
-13 55 -368 0
-90 264 456 0
195 -233 -264 0
226 -257 -319 0
-12 -263 300 0
-3 -129 435 0
12 77 -278 0
-144 359 438 0
-205 -317 495 0
175 198 -252 0
-119 -289 -399 0
158 338 355 0
19 -272 328 0
-203 -216 -463 0
-29 167 250 0
-155 402 495 0
-22 76 294 0
221 -285 292 0
92 -398 482 0
-113 -183 379 0
-187 226 -270 0
139 -375 391 0
-320 340 -437 0
-127 367 -491 0
-148 -330 353 0
-182 -343 -482 0
205 -301 400 0
-99 208 312 0
-62 -270 -420 0
-101 -305 -399 0
162 276 457 0
-247 -354 476 0
150 -160 498 0
-43 153 -233 0
-29 297 417 0
-273 -328 -387 0
90 106 453 0
273 -320 -491 0
38 43 -126 0
272 344 375 0
184 -238 -378 0
403 430 457 0
83 -132 -287 0
-72 201 -454 0
162 -209 -212 0
28 -116 -121 0
226 323 -411 0
1 -117 -119 0
-186 -329 377 0
-93 -153 -219 0
124 -166 414 0
-286 -324 -490 0
88 -157 -175 0
-17 87 -466 0
-149 -338 -414 0
-161 166 -439 0
96 160 -217 0
-238 -258 -334 0
-54 -98 109 0
-54 -137 -339 0
278 318 -332 0
-12 248 297 0
-105 -241 373 0
-121 -156 -363 0
-183 378 398 0
-345 -373 -451 0
-239 291 442 0
-193 -214 -404 0
-135 232 -484 0
-21 -211 -462 0
-84 163 -464 0
-125 257 -478 0
-3 -159 -396 0
-11 -188 -334 0
-120 242 -496 0
55 170 273 0
27 85 -354 0
-79 279 416 0
37 -248 408 0
-79 213 445 0
108 367 411 0
-251 316 326 0
24 -30 292 0
-36 91 -124 0
-392 457 489 0
139 -146 -237 0
-133 -191 231 0
33 82 297 0
111 464 479 0
-14 -33 96 0
-100 -308 -405 0
121 -415 465 0
77 -219 383 0
-170 -393 453 0
-181 -298 321 0
41 181 286 0
128 382 425 0
245 -263 377 0
-149 -273 385 0
206 -235 387 0
82 130 -144 0
71 -260 379 0
42 230 -336 0
261 -423 -451 0
-38 -245 -452 0
-365 405 448 0
387 -456 499 0
-125 163 442 0
268 -433 458 0
94 325 -387 0
89 -166 -294 0
224 348 445 0
-16 -189 -368 0
16 -107 451 0
-133 175 -246 0
-46 -225 -404 0
-153 -212 -388 0
-36 -94 -427 0
-313 -318 491 0
-17 -76 449 0
-145 -382 447 0
110 483 -493 0
169 192 410 0
34 -196 339 0
79 -101 -125 0
-4 -172 -268 0
-75 -110 493 0
-20 227 -346 0
19 150 -207 0
176 262 354 0
148 -292 -421 0
-174 186 -379 0
194 -309 -417 0
-85 342 444 0
-29 -380 -419 0
-117 -186 327 0
-147 305 482 0
68 150 351 0
-15 -109 -112 0
-62 -117 211 0
170 342 404 0
-150 -182 -305 0
62 -315 372 0
-81 188 -238 0
-57 426 474 0
284 351 -412 0
-39 -45 429 0
-56 -390 464 0
-94 364 416 0
-124 -143 -453 0
59 -258 480 0
-79 -182 311 0
19 107 116 0
65 -296 440 0
-161 379 -457 0
139 210 408 0
-254 272 -499 0
2 -22 395 0
-183 -325 -354 0
116 -182 -224 0
240 437 -496 0
-23 42 -216 0
25 107 117 0
-159 -340 461 0
-72 -105 328 0
-195 -217 -366 0
84 318 491 0
-166 -386 -480 0
66 -166 -445 0
-239 -251 -386 0
-19 -39 -261 0
185 -392 -467 0
-14 293 331 0
-84 191 -246 0
219 330 470 0
-337 430 470 0
-47 -86 227 0
2 357 481 0
-124 139 -158 0
8 -200 249 0
50 -145 -436 0
-177 -283 -493 0
57 -78 500 0
-295 338 -429 0
106 163 256 0
-254 321 -416 0
-299 401 480 0
-79 178 440 0
-122 -245 376 0
-17 314 -483 0
157 -222 -319 0
-155 338 -369 0
118 -132 -166 0
79 164 499 0
-204 383 453 0
160 -195 499 0
99 310 -476 0
-414 -468 495 0
-70 259 -426 0
85 99 119 0
85 283 -304 0
51 -137 -139 0
103 142 244 0
158 -421 487 0
1 -474 482 0
183 254 -497 0
231 292 397 0
42 -365 472 0
248 314 342 0
-144 314 418 0
63 -276 496 0
136 -158 387 0
-65 208 -317 0
90 207 -495 0
-235 274 299 0
17 256 -372 0
90 -122 -123 0
-15 -167 265 0
18 -88 291 0
-28 -263 -427 0
-249 -297 381 0
86 -243 274 0
2 -386 497 0
-29 -274 434 0
229 303 445 0
-99 297 361 0
-240 -311 446 0
8 200 -212 0
-362 -427 -484 0
-15 172 476 0
-119 168 473 0
-1 334 -351 0
27 -53 -260 0
-60 147 283 0
160 -388 -459 0
17 206 -425 0
-116 219 -409 0
-188 232 -269 0
111 275 332 0
-93 -370 415 0
-243 393 -395 0
241 443 495 0
56 227 -421 0
-56 99 -158 0
21 134 -454 0
-32 230 -332 0
17 -277 -301 0
108 -175 -257 0
112 150 336 0
-4 -196 200 0
145 -151 -326 0
30 -123 -372 0
-265 -352 369 0
-231 -281 283 0
179 278 -431 0
-168 315 351 0
131 -137 -139 0
-8 144 -401 0
-51 -129 -306 0
-91 314 385 0
69 198 -345 0
116 -292 -435 0
-101 -188 412 0
106 -139 -246 0
-143 245 368 0
-16 390 -488 0
-262 273 293 0
163 -273 -370 0
259 -297 300 0
-351 419 -477 0
-231 355 400 0
308 347 431 0
-92 -94 144 0
56 148 431 0
57 166 336 0
68 77 108 0
172 175 200 0
5 -18 452 0
-28 355 482 0
122 329 -330 0
-101 167 -276 0
-134 161 205 0
183 217 -260 0
-2 -76 -441 0
-124 219 -469 0
42 -287 434 0
2 -84 -233 0
204 419 -435 0
59 191 491 0
-196 -367 -446 0
-156 352 476 0
66 171 365 0
-80 -409 -472 0
50 -113 260 0
60 -313 477 0
268 279 -415 0
-256 -297 412 0
-102 -322 -494 0
61 -163 -257 0
36 -109 113 0
105 -245 -442 0
19 -221 300 0
-75 -322 -386 0
-22 -376 -494 0
20 156 484 0
-265 309 -390 0
301 -415 -497 0
326 362 -495 0
-76 356 -388 0
-15 160 348 0
216 -352 -384 0
-200 232 -395 0
89 166 194 0
39 74 483 0
-74 108 -207 0
9 184 -220 0
39 -168 -319 0
-374 448 -483 0
18 -159 488 0
-90 133 259 0
53 -178 -209 0
-53 318 -458 0
283 406 456 0
70 117 -167 0
-82 177 343 0
80 131 478 0
-353 -380 405 0
40 162 -332 0
-233 -321 414 0
-74 -141 497 0
-233 -365 444 0
62 122 -439 0
12 35 71 0
-6 209 -277 0
67 -384 403 0
110 192 -410 0
32 -45 -225 0
58 -205 -485 0
26 53 -78 0
250 368 407 0
203 244 434 0
-88 -157 390 0
-337 -412 471 0
-16 27 -277 0
-147 -269 406 0
-44 120 208 0
51 341 460 0
371 467 478 0
222 -384 -386 0
-14 298 475 0
28 -61 368 0
70 279 304 0
-50 -203 -225 0
-244 261 -305 0
254 263 -357 0
-301 394 400 0
10 20 -356 0
-62 -277 -463 0
87 304 314 0
4 356 466 0
-153 327 -395 0
-30 -207 235 0
-13 -396 -401 0
138 391 -470 0
142 -178 468 0
-225 -351 -461 0
83 -94 403 0
-120 302 417 0
52 233 350 0
-67 -115 178 0
-45 -304 -446 0
-36 -97 356 0
113 353 -417 0
-356 -371 -429 0
-54 -248 -405 0
-188 326 -365 0
113 301 -371 0
-186 -206 -341 0
129 -165 433 0
29 172 358 0
-148 213 -395 0
-46 145 279 0
5 313 341 0
-79 403 -413 0
45 -348 -386 0
111 263 -473 0
-159 -280 393 0
78 -116 -414 0
-168 -236 255 0
-122 -309 374 0
-91 -160 -201 0
154 -264 420 0
348 402 496 0
-86 347 -492 0
108 375 435 0
-139 272 -330 0
92 -294 -483 0
109 -283 476 0
-70 341 359 0
-109 -344 -428 0
-151 -257 -344 0
-347 459 491 0
-22 -108 -257 0
-178 -323 494 0
-173 392 431 0
150 374 488 0
-155 -292 428 0
-198 384 394 0
-42 200 253 0
-160 -242 469 0
2 -127 -159 0
214 292 -429 0
-50 -170 428 0
84 223 465 0
-117 -150 297 0
149 -151 499 0
-96 -345 -444 0
67 -111 179 0
-91 424 -456 0
-7 319 -375 0
-8 -195 -414 0
-160 271 -417 0
127 310 -497 0
-15 -63 403 0
-21 389 -485 0
71 112 -128 0
-69 -250 -356 0
-25 382 462 0
92 205 -388 0
80 244 -283 0
51 367 -469 0
-69 152 -389 0
100 289 -433 0
121 354 -472 0
351 392 -474 0
12 74 -233 0
-135 -187 291 0
-329 387 444 0
306 426 486 0
1 131 -357 0
-49 172 -482 0
25 -119 -149 0
-104 207 -499 0
-186 407 -432 0
64 -246 334 0
-87 279 -307 0
-371 -426 443 0
90 305 -331 0
272 -324 -400 0
-78 -108 242 0
-16 195 -421 0
-251 -303 479 0
110 -415 447 0
15 109 -244 0
73 -188 478 0
93 -100 -347 0
-78 126 358 0
-242 -349 409 0
-208 -344 461 0
425 -452 497 0
-156 189 -424 0
-227 -249 -403 0
-50 116 -227 0
-355 368 450 0
231 -266 -370 0
59 -68 122 0
-19 147 -249 0
-83 -86 -393 0
155 219 -406 0
161 169 -457 0
106 117 186 0
-106 129 -246 0
22 158 385 0
-160 -197 283 0
-88 268 -495 0
-175 259 -314 0
-95 264 381 0
97 -212 -350 0
-111 -343 -455 0
-167 -243 315 0
-66 -73 -158 0
-201 319 386 0
-306 335 362 0
34 361 -499 0
-421 -482 -491 0
105 172 -444 0
243 -320 407 0
13 141 -489 0
-38 -284 447 0
-24 -87 171 0
33 244 435 0
-302 337 -433 0
210 243 -325 0
108 -341 407 0
-127 -135 -422 0
-259 397 493 0
202 303 332 0
-205 324 -410 0
195 231 -379 0
-310 445 -451 0
35 -154 227 0
153 218 -281 0
-42 -237 376 0
-15 270 -494 0
-2 -77 365 0
169 285 -440 0
171 -210 482 0
-80 138 150 0
-11 99 327 0
269 -324 491 0
311 422 -432 0
82 -166 270 0
-37 -51 390 0
-95 -106 -487 0
69 -306 -482 0
11 61 -108 0
-255 395 -480 0
250 399 -476 0
165 -212 230 0
-8 288 -492 0
134 288 331 0
2 96 -436 0
-321 328 -377 0
187 -227 -235 0
-81 258 316 0
-54 89 -478 0
-243 346 -365 0
-23 -444 483 0
-130 -190 472 0
-403 435 -463 0
54 -258 460 0
73 372 495 0
162 220 -367 0
-109 -303 -347 0
268 -281 417 0
-106 151 -371 0
261 458 499 0
-70 -121 290 0
-121 160 -300 0
-138 165 -486 0
87 -127 -183 0
175 -221 447 0
158 -285 413 0
-70 -81 434 0
74 -84 176 0
148 383 466 0
-29 146 412 0
314 -318 393 0
314 356 477 0
81 206 -295 0
25 161 398 0
-129 -330 -369 0
-23 -285 363 0
-92 118 320 0
-102 -111 -216 0
227 -250 481 0
-37 268 419 0
161 166 297 0
-43 240 -445 0
-118 130 -376 0
-68 193 466 0
-72 96 -458 0
-198 270 -292 0
-120 227 -357 0
49 132 -263 0
107 215 -249 0
-101 135 -355 0
-155 210 -245 0
-284 -320 419 0
292 409 477 0
-44 -168 348 0
-402 -479 -491 0
-170 325 447 0
71 -95 -236 0
248 -275 363 0
172 256 360 0
-267 384 393 0
-35 150 224 0
161 223 -271 0
-172 189 -415 0
-316 -368 -460 0
-53 482 498 0
236 -403 466 0
-26 388 495 0
-7 308 334 0
6 263 433 0
38 145 -481 0
-367 -383 -387 0
192 -241 359 0
165 192 282 0
276 340 -413 0
5 -99 154 0
341 -354 -377 0
-233 -332 497 0
-32 -365 -384 0
221 316 460 0
66 -224 414 0
177 -415 462 0
-220 -222 368 0
239 -282 -432 0
-117 298 -405 0
-281 305 357 0
-1 -295 -405 0
121 -245 291 0
-155 -306 -493 0
-109 -142 311 0
86 -266 445 0
5 249 -316 0
-37 -291 325 0
251 367 436 0
97 -253 459 0
-11 -159 188 0
32 -34 358 0
-70 -85 -303 0
-192 -404 -424 0
-98 245 354 0
108 196 459 0
257 -473 -476 0
-54 159 225 0
16 219 474 0
55 112 334 0
-23 87 -166 0
-50 -168 -205 0
119 -286 -365 0
-189 -401 -465 0
106 173 461 0
49 326 365 0
48 -108 132 0
-74 131 -134 0
61 248 -371 0
114 460 -483 0
177 -366 435 0
-201 224 -280 0
-106 291 369 0
-253 -258 -274 0
113 257 -310 0
83 -165 -358 0
189 -363 455 0
24 -151 356 0
-60 238 269 0
37 190 -467 0
-3 122 150 0
-113 416 -464 0
10 -214 338 0
18 -271 301 0
329 375 487 0
-10 -140 -498 0
-60 -104 -389 0
62 -71 -125 0
-12 15 224 0
-172 -255 -395 0
68 335 343 0
-163 322 -420 0
-8 -41 -423 0
111 227 -301 0
-180 -314 410 0
-167 273 -305 0
153 -422 443 0
30 54 -455 0
309 424 -468 0
112 117 -175 0
194 -305 -323 0
-89 -200 -372 0
234 420 465 0
352 -420 442 0
78 -100 120 0
-376 400 494 0
-1 -7 474 0
-1 -119 432 0
-60 -126 -414 0
-149 -397 448 0
-117 269 -324 0
-316 449 -489 0
75 -154 416 0
-220 297 -436 0
260 400 426 0
-202 367 488 0
280 446 -469 0
199 276 -399 0
71 -127 -259 0
55 -82 -500 0
314 -377 429 0
74 299 -482 0
279 408 455 0
165 -167 -239 0
-218 279 443 0
41 292 366 0
243 -424 -450 0
-188 -247 359 0
21 124 430 0
-52 204 305 0
-45 -183 -270 0
-174 401 411 0
132 -366 -469 0
-235 -328 427 0
160 254 -382 0
78 -122 -487 0
44 -264 376 0
-69 371 -493 0
-251 -284 -456 0
52 56 -475 0
83 96 -132 0
-107 250 -329 0
191 210 -285 0
-9 323 470 0
-205 290 -379 0
16 93 -240 0
37 69 267 0
399 412 458 0
194 213 488 0
-44 -228 279 0
-159 210 -467 0
-34 126 -164 0
20 -312 383 0
4 -182 -305 0
205 -365 -499 0
-88 -205 371 0
43 280 -311 0
415 -425 455 0
365 409 417 0
109 -266 417 0
-212 -250 -403 0
8 -219 326 0
53 191 -305 0
228 326 401 0
-61 279 398 0
196 -202 485 0
15 -56 -215 0
86 -160 286 0
-119 238 -295 0
-210 -218 246 0
-182 214 468 0
-66 245 -389 0
110 251 -258 0
-123 168 -348 0
-15 56 128 0
1 194 -492 0
-314 -419 -477 0
-244 258 -449 0
260 -328 -446 0
75 116 435 0
-136 -229 -347 0
112 134 -168 0
-300 -420 -434 0
122 -139 284 0
-85 -212 -453 0
68 80 -195 0
-157 -285 -440 0
191 -327 393 0
86 181 219 0
-250 351 -447 0
80 -394 -439 0
-72 82 422 0
104 352 -429 0
177 -301 380 0
-107 413 -486 0
262 -386 421 0
-1 358 411 0
11 -394 440 0
123 -248 -300 0
39 99 -165 0
-9 -10 -143 0
-216 -364 366 0
-194 -324 -434 0
-170 -278 -424 0
-132 193 -203 0
-409 410 -444 0
-44 199 260 0
182 -385 -464 0
95 115 446 0
-21 300 -380 0
-221 -313 -463 0
6 19 -460 0
164 -231 -306 0
278 294 -454 0
462 475 -492 0
236 338 380 0
-229 245 -454 0
79 -170 -275 0
-123 -258 448 0
-57 130 147 0
-220 -419 493 0
89 220 -383 0
125 174 387 0
28 -373 464 0
-248 342 475 0
62 106 322 0
38 -329 -447 0
156 -207 -274 0
103 -301 326 0
285 -355 -406 0
110 -274 -374 0
-282 441 471 0
319 -371 379 0
-133 152 -362 0
194 409 -414 0
-128 174 -403 0
70 230 -464 0
-127 -197 219 0
-44 365 447 0
182 234 394 0
-321 -391 459 0
-103 -186 454 0
-179 213 297 0
-137 392 406 0
145 372 -377 0
77 117 464 0
215 342 398 0
31 -350 458 0
57 -254 304 0
-4 -17 -136 0
-179 -186 -241 0
70 277 -399 0
191 -210 -381 0
-57 418 434 0
131 -271 357 0
201 489 -490 0
-136 -201 305 0
171 -288 364 0
165 383 443 0
-122 -178 -405 0
-184 -287 -365 0
-235 -251 -482 0
-85 -241 -346 0
-139 -460 -500 0
-160 -249 -472 0
201 -294 -347 0
121 -212 -470 0
-34 333 -405 0
207 210 485 0
-15 50 -268 0
-53 237 328 0
214 -366 -437 0
-89 139 233 0
212 265 -365 0
-257 343 460 0
9 138 -443 0
243 -276 283 0
-72 355 -461 0
-104 -301 470 0
-27 -265 440 0
-64 184 -264 0
-154 193 326 0
-244 309 -455 0
249 275 -305 0
152 229 270 0
80 180 330 0
133 -356 -374 0
-131 191 254 0
147 185 451 0
164 296 -356 0
-393 406 -483 0
66 -256 -439 0
41 170 -479 0
-268 295 389 0
13 -202 322 0
129 329 425 0
180 -276 -366 0
250 266 449 0
-160 -274 -443 0
202 329 338 0
186 -199 424 0
-11 -23 403 0
13 339 376 0
-25 184 319 0
334 377 462 0
-157 435 -451 0
-120 -251 -376 0
-114 -126 -223 0
47 78 169 0
203 -224 -346 0
31 -177 380 0
51 374 -451 0
-58 -84 -268 0
82 111 -173 0
-67 390 -410 0
-401 -419 488 0
-92 -331 347 0
-5 62 -456 0
21 317 -369 0
81 217 -320 0
-260 396 -423 0
185 238 -373 0
128 -302 -499 0
-109 389 -443 0
205 340 -414 0
-117 -119 -433 0
-16 -258 291 0
199 281 -444 0
-256 -271 -403 0
-212 280 -361 0
-73 224 -470 0
317 -363 481 0
-44 147 -215 0
-182 249 -415 0
-155 -236 -262 0
8 -202 248 0
141 392 -470 0
-71 -151 -274 0
100 -307 -443 0
424 -435 449 0
32 -100 -421 0
-102 -142 335 0
-17 -313 473 0
215 240 -273 0
-79 -284 -313 0
77 -217 -254 0
-18 24 -92 0
278 -326 489 0
106 -175 406 0
273 -292 -428 0
-3 260 -361 0
-173 283 473 0
-11 86 -87 0
-324 -437 484 0
-183 197 381 0
-37 166 442 0
-155 -370 -484 0
25 -455 -484 0
-56 416 470 0
-307 389 409 0
-11 -163 438 0
300 -335 447 0
1 107 133 0
-110 326 488 0
-81 -139 -342 0
187 -224 398 0
-128 147 479 0
-4 227 -474 0
185 -282 -451 0
135 245 315 0
-266 -321 -486 0
-149 225 268 0
-210 213 389 0
-25 128 164 0
-130 -221 -387 0
-81 -166 -464 0
106 326 -482 0
-130 212 312 0
-4 -36 -37 0
22 -128 -134 0
-54 -399 -426 0
47 -274 346 0
58 -123 128 0
-71 -287 -477 0
7 -116 170 0
332 433 474 0
231 332 -449 0
230 244 -309 0
4 109 423 0
129 -306 -420 0
-243 284 340 0
102 -310 -388 0
146 257 -336 0
-128 -160 -473 0
45 126 -439 0
-52 -148 232 0
-162 -293 -304 0
-38 -226 -295 0
303 -314 -478 0
66 -110 320 0
260 -318 434 0
194 298 -311 0
-58 271 -393 0
-40 -55 84 0
-162 330 -409 0
-20 309 314 0
208 354 -387 0
-41 126 155 0
-83 -85 98 0
12 -13 -149 0
-225 -324 494 0
-48 200 442 0
-294 420 -485 0
134 -305 -394 0
-82 157 -257 0
75 -313 482 0
-17 -105 -323 0
-275 -452 478 0
225 -256 -351 0
-89 -230 -295 0
30 -187 216 0
48 -134 -245 0
-12 72 484 0
46 299 396 0
20 342 -492 0
175 -198 -405 0
-194 253 -256 0
-34 -267 366 0
-386 438 496 0
147 -187 361 0
-27 86 -225 0
-91 180 -193 0
-224 282 -486 0
209 223 366 0
-11 -61 -269 0
-229 -269 -289 0
-23 259 346 0
-144 -245 374 0
-112 -310 -477 0
-133 -188 444 0
-33 88 -490 0
2 292 418 0
200 -266 -407 0
317 -342 450 0
51 353 382 0
-156 345 417 0
47 -61 -147 0
238 -335 375 0
-92 355 446 0
234 -305 -312 0
-71 -196 -283 0
86 229 440 0
-111 -399 -471 0
-76 245 436 0
67 -133 -320 0
7 280 -440 0
-55 -254 441 0
-131 -231 -482 0
-267 329 -390 0
107 304 423 0
-5 -34 -310 0
-165 -289 416 0
-370 426 470 0
-19 213 263 0
22 -35 -48 0
-7 340 -366 0
-44 -231 338 0
-279 327 -366 0
-13 -62 206 0
-221 365 -414 0
-95 207 -287 0
-68 310 392 0
101 -383 409 0
-235 -269 317 0
181 402 -468 0
-284 -385 441 0
-81 -253 -275 0
124 -129 -444 0
45 -175 -181 0
-31 118 -163 0
180 358 447 0
-163 -173 299 0
16 226 -340 0
57 -356 -399 0
-157 246 474 0
67 -72 353 0
-46 -237 -252 0
-5 -39 480 0
-107 -156 341 0
209 374 -406 0
106 133 161 0
-300 398 429 0
57 241 282 0
-201 497 -498 0
331 -369 -499 0
87 93 -175 0
-16 19 21 0
-54 389 -423 0
149 158 387 0
-177 369 -432 0
-88 -404 -467 0
64 195 366 0
-158 325 -454 0
-115 244 470 0
-82 142 -237 0
77 -82 -321 0
98 -219 -423 0
-118 -318 -329 0
-2 229 246 0
-54 218 -376 0
66 -274 -306 0
-63 -69 -162 0
-164 346 -484 0
45 -169 -371 0
-209 -217 -317 0
78 -84 -260 0
-378 -409 425 0
-190 -376 439 0
176 300 323 0
-127 209 -490 0
187 -220 231 0
-432 454 -483 0
-183 -343 -356 0
-28 267 304 0
112 -138 466 0
110 121 -186 0
247 389 -452 0
4 -232 422 0
-29 360 454 0
20 -224 241 0
-137 -421 426 0
97 165 -410 0
4 -175 -345 0
1 97 -179 0
-8 -329 -486 0
-96 140 -295 0
273 -394 492 0
-147 -267 413 0
-237 340 -350 0
84 186 -461 0
232 -242 261 0
62 -170 381 0
-167 179 -325 0
-142 -191 -327 0
23 226 389 0
-85 121 476 0
110 301 447 0
-244 252 463 0
-237 376 -466 0
35 61 466 0
278 331 -392 0
-118 -404 -488 0
188 -275 -449 0
-217 270 425 0
-89 -284 326 0
-292 -336 -464 0
-84 275 -474 0
-208 242 -291 0
66 113 354 0
-62 -92 214 0
-59 -117 292 0
-182 192 202 0
190 -260 -462 0
-84 250 286 0
206 -457 493 0
-108 383 -431 0
146 316 -381 0
-331 -352 460 0
4 -171 -183 0
46 -96 -290 0
48 135 -304 0
-22 128 271 0
224 -234 302 0
-105 -245 417 0
225 278 -285 0
-23 306 -497 0
42 186 222 0
-313 -421 483 0
-186 271 340 0
-234 391 477 0
42 268 -493 0
24 167 273 0
30 -311 -451 0
51 -420 -460 0
21 83 -157 0
-158 165 376 0
64 -269 -402 0
70 225 -309 0
-92 323 425 0
-180 307 494 0
86 -339 -416 0
44 219 -424 0
427 -480 497 0
166 198 -393 0
118 134 -243 0
243 -351 408 0
-35 -283 -422 0
6 208 -456 0
-32 315 -343 0
188 419 -491 0
-80 -132 -135 0
161 -365 368 0
-109 -262 431 0
-210 -355 -488 0
-109 121 133 0
277 -337 419 0
156 -302 346 0
113 -124 315 0
86 244 -349 0
6 323 -401 0
60 -200 308 0
-140 466 -491 0
-42 200 339 0
-129 -132 257 0
23 205 257 0
21 -474 -489 0
171 202 401 0
69 -76 281 0
-27 148 -184 0
178 306 318 0
-262 -269 -325 0
155 -163 361 0
141 -317 -424 0
-13 -320 -336 0
-81 125 -309 0
47 -430 477 0
302 338 350 0
-249 340 -434 0
-31 151 238 0
363 -421 469 0
292 312 320 0
84 -110 172 0
319 476 496 0
-187 272 -384 0
238 406 482 0
100 337 405 0
83 -410 491 0
-24 -90 -191 0
40 231 452 0
-47 146 -186 0
276 -332 472 0
198 365 433 0
118 -224 -342 0
-34 73 488 0
4 57 225 0
-313 -419 -488 0
259 -380 -404 0
-182 -425 450 0
-25 -97 254 0
-242 -335 -366 0
140 428 451 0
127 -292 391 0
-47 276 -415 0
-334 430 481 0
-6 164 226 0
-21 322 -345 0
-111 132 350 0
278 -318 -326 0
62 123 495 0
86 271 477 0
-32 -33 -92 0
-42 411 461 0
-155 188 423 0
-191 -356 390 0
138 438 -499 0
168 -391 -403 0
-110 -168 171 0
78 133 210 0
248 -332 -354 0
42 -132 181 0
-19 79 463 0
-81 -243 308 0
129 -284 318 0
250 360 -398 0
126 341 -403 0
-86 114 374 0
-24 400 -444 0
-105 -349 473 0
223 -322 359 0
-86 -132 -223 0
185 -239 -460 0
-65 80 -274 0
-287 355 370 0
92 -174 443 0
-15 299 -379 0
-132 409 -491 0
21 -59 -82 0
101 160 385 0
58 127 352 0
4 112 -365 0
143 -158 457 0
26 -61 382 0
38 -452 461 0
-89 118 -360 0
-174 -271 476 0
24 -158 -163 0
161 -166 -267 0
-290 -483 -490 0
15 -201 -258 0
-104 -158 283 0
-85 168 -288 0
-24 -26 -445 0
64 110 392 0
-199 354 -451 0
162 324 484 0
-167 209 255 0
-38 253 405 0
-144 186 282 0
139 -346 469 0
42 230 416 0
196 -292 -475 0
46 -305 -385 0
178 -210 -396 0
18 25 196 0
-205 -214 -314 0
-209 -224 -425 0
380 -398 442 0
-111 219 322 0
387 392 -439 0
121 -417 453 0
-11 238 -432 0
-215 269 -304 0
-122 271 371 0
-53 -94 425 0
-172 -300 498 0
87 -134 -398 0
11 -145 374 0
-15 87 -123 0
-236 -366 478 0
57 -209 -236 0
-236 328 436 0
267 339 -458 0
-205 -224 248 0
-105 -111 268 0
184 -278 382 0
96 185 -382 0
-306 -415 -460 0
-47 -73 -359 0
-310 -352 400 0
-94 245 -390 0
10 12 -304 0
74 -247 399 0
-420 -443 -452 0
298 -483 -493 0
106 -160 -465 0
59 -258 -422 0
-110 -205 -292 0
-48 401 496 0
237 378 382 0
29 -89 -345 0
423 -439 447 0
147 245 -295 0
-238 264 489 0
42 -208 -273 0
-137 -160 -177 0
12 108 287 0
-301 330 424 0
157 -368 -452 0
167 -257 322 0
170 468 -482 0
197 -236 -354 0
-81 182 -476 0
161 408 -443 0
35 -437 461 0
-132 -322 416 0
243 -409 -410 0
5 33 96 0
65 -82 -128 0
-137 -324 -335 0
-3 -237 -478 0
2 -209 -444 0
282 330 380 0
-89 400 -406 0
-128 154 -261 0
-116 151 292 0
-168 -207 469 0
41 -66 -240 0
86 -369 489 0
75 -135 -320 0
290 -319 327 0
132 185 470 0
6 -68 -329 0
-22 70 -90 0
45 -407 485 0
-307 -442 -495 0
207 363 417 0
-262 -314 -315 0
120 204 371 0
58 -169 -464 0
-365 367 372 0
58 -109 285 0
-141 230 -309 0
49 -220 284 0
-27 93 340 0
167 325 416 0
-42 46 -446 0
-321 353 382 0
231 -396 -439 0
-94 -240 345 0
-144 385 458 0
-274 -350 -436 0
84 -116 133 0
-2 -390 -443 0
60 266 424 0
-232 237 372 0
-13 -72 -278 0
246 263 308 0
102 211 254 0
297 309 -322 0
-254 -331 454 0
-7 338 -403 0
57 -215 488 0
18 -341 -389 0
-3 388 -415 0
78 -147 -235 0
-47 -181 344 0
189 -421 432 0
-108 381 -399 0
-126 -242 432 0
-128 355 374 0
15 -447 483 0
212 327 446 0
-101 146 -147 0
16 301 341 0
40 46 50 0
-175 -446 -447 0
-197 -261 483 0
205 -215 -254 0
297 361 414 0
-91 -218 -486 0
-106 -261 489 0
