c description: Random 3-CNF over 500 variables and 2129 clauses
c generator: CNFgen (0.9.6)
c copyright: (C) 2012-2026 Massimo Lauria <massimo.lauria@uniroma1.it>
c url: https://massimolauria.net/cnfgen
c command line: cnfgen randkcnf 3 500 2129
c
p cnf 500 2129
60 -331 425 0
144 279 380 0
-166 192 -277 0
-118 -377 -440 0
-110 -273 275 0
-298 -447 -458 0
-197 207 -482 0
-52 258 405 0
-73 -98 -178 0
229 261 396 0
-4 105 -202 0
-80 -132 -402 0
-210 -421 499 0
-288 -339 448 0
379 463 -467 0
-18 -375 465 0
52 97 231 0
113 -339 -491 0
-233 -291 -467 0
-78 139 -469 0
227 -238 331 0
-101 123 439 0
12 150 -203 0
98 223 -339 0
15 -213 -341 0
-425 439 -443 0
-3 389 -450 0
-49 -182 -304 0
-20 -33 -433 0
-14 54 166 0
22 69 -97 0
28 186 -359 0
77 420 422 0
-367 -380 -443 0
-154 212 -366 0
165 275 -359 0
38 -153 354 0
340 479 -496 0
-97 -228 -446 0
-12 -277 -415 0
-110 323 -351 0
96 -114 -337 0
143 274 418 0
-295 -461 499 0
-251 347 -415 0
-140 381 432 0
121 -135 217 0
-292 -337 479 0
27 196 -381 0
-114 366 -494 0
-29 -147 427 0
-183 319 474 0
-23 -156 -485 0
96 373 -481 0
-351 -377 -433 0
-161 173 284 0
-333 -449 -498 0
-101 -256 -443 0
38 -152 -488 0
172 -344 -461 0
23 169 -419 0
-183 -249 -326 0
16 100 -431 0
-130 223 -242 0
-6 52 -120 0
-115 -430 -444 0
158 -229 -336 0
-96 -142 400 0
-111 -138 -467 0
-293 408 486 0
-13 -148 -250 0
-299 363 -388 0
-200 240 249 0
35 -288 -419 0
-127 142 410 0
107 123 -498 0
-426 464 466 0
-32 33 132 0
150 159 168 0
-272 361 -377 0
39 -50 -498 0
12 121 310 0
-3 -325 433 0
-165 -393 -495 0
29 -172 401 0
-27 32 127 0
180 241 -500 0
-50 159 436 0
-10 44 -259 0
-99 164 -359 0
-76 -238 292 0
-76 -321 -406 0
-77 -79 -374 0
372 395 481 0
-73 163 469 0
-286 -449 471 0
193 406 464 0
-12 411 -419 0
-191 -278 -353 0
46 -362 -367 0
-390 430 -441 0
236 253 -448 0
6 -166 269 0
-60 -252 -325 0
-79 129 -426 0
165 -242 286 0
179 231 294 0
69 100 493 0
288 405 -412 0
254 -310 -315 0
131 434 -475 0
240 353 403 0
128 -258 -460 0
50 382 452 0
39 187 -372 0
145 -147 357 0
-138 -386 -454 0
-70 217 493 0
134 -313 355 0
-216 -300 -375 0
224 -255 -262 0
188 391 474 0
-116 178 -480 0
39 44 -286 0
-153 -413 420 0
-217 -455 488 0
-198 -276 -295 0
161 204 -403 0
-359 -474 477 0
-77 122 -218 0
67 -138 -265 0
143 300 423 0
-94 -216 -426 0
8 136 422 0
-118 154 188 0
112 -165 428 0
327 366 -421 0
-177 408 495 0
-149 -372 421 0
73 -216 -482 0
-213 327 446 0
383 -440 474 0
222 -283 405 0
34 -434 -449 0
-239 -247 -491 0
-181 373 -479 0
-115 276 471 0
42 84 310 0
-108 245 -482 0
42 214 -384 0
22 -44 117 0
251 263 -417 0
21 -102 256 0
281 -331 -494 0
-137 290 378 0
-31 -48 -260 0
-120 -288 392 0
-37 -110 -232 0
-50 -206 -470 0
-149 -331 427 0
-19 -64 143 0
-86 345 426 0
-217 -422 -482 0
11 -144 326 0
1 -251 425 0
45 -219 385 0
-106 274 -374 0
16 156 483 0
23 54 -374 0
163 -367 -402 0
267 426 -463 0
-4 -296 486 0
254 303 -455 0
-29 -141 -384 0
-238 -312 -388 0
95 187 -215 0
-198 327 490 0
-30 -247 305 0
67 -188 -488 0
16 -152 293 0
-253 -361 398 0
212 -366 -438 0
-66 -327 -479 0
241 -288 480 0
-7 392 489 0
11 -98 167 0
-14 -56 -174 0
86 244 360 0
152 -198 -464 0
19 -119 223 0
173 243 412 0
202 329 -370 0
45 167 281 0
-10 -54 -434 0
58 -176 482 0
41 -311 323 0
-58 335 -399 0
145 365 443 0
79 -242 369 0
43 234 341 0
76 -181 -386 0
99 -390 467 0
-19 -30 -266 0
291 314 450 0
11 -156 -303 0
251 286 342 0
187 365 -383 0
247 -264 401 0
307 -374 449 0
141 -424 -465 0
-48 -61 -345 0
225 398 -480 0
-157 335 387 0
134 -333 346 0
-177 -368 464 0
-272 -368 -406 0
-142 197 457 0
2 -61 -180 0
-9 -149 -337 0
11 212 423 0
239 266 436 0
-57 -209 -452 0
86 -142 432 0
141 225 -443 0
-253 -390 397 0
136 -451 -493 0
-97 315 377 0
235 273 -302 0
74 270 370 0
176 196 -498 0
-177 281 399 0
-144 -387 435 0
146 -208 376 0
204 357 -403 0
282 326 -357 0
149 -154 460 0
73 -321 -486 0
38 -198 369 0
-122 -181 -294 0
-141 178 -270 0
-73 -440 458 0
-205 275 492 0
34 59 258 0
179 -239 -438 0
-10 277 -424 0
-184 432 -449 0
215 -249 -345 0
-25 167 264 0
-2 48 56 0
142 370 -493 0
15 59 -68 0
-52 -61 -138 0
178 -181 241 0
-193 405 500 0
192 419 470 0
-146 382 398 0
-170 -228 -266 0
98 -392 -405 0
-118 -121 -313 0
33 241 337 0
316 -434 460 0
76 225 269 0
108 -373 435 0
-147 -165 -356 0
7 122 141 0
-84 -110 -275 0
299 375 -403 0
-395 -467 480 0
-165 251 311 0
-76 364 -401 0
126 -431 443 0
185 -339 -442 0
-366 431 436 0
167 267 -413 0
94 -394 -473 0
6 -353 388 0
49 -231 332 0
-299 405 -462 0
-193 -329 452 0
-62 -334 365 0
329 405 -409 0
-127 -162 264 0
-177 399 -471 0
-50 -303 337 0
102 182 233 0
-256 343 -383 0
213 -304 430 0
-164 315 -328 0
-296 -367 453 0
-75 -347 408 0
-29 -274 283 0
66 278 -445 0
114 -343 457 0
-142 -148 216 0
253 311 -352 0
36 226 377 0
112 146 435 0
-9 -55 473 0
-86 111 140 0
24 -47 495 0
79 -187 -500 0
69 408 460 0
39 -74 240 0
-60 158 -368 0
230 429 -445 0
53 271 -396 0
-288 361 451 0
147 182 389 0
160 -218 -351 0
232 325 -420 0
17 88 496 0
10 142 -202 0
-71 144 -418 0
69 -174 379 0
-310 -348 -415 0
-143 -406 -422 0
-58 170 213 0
-71 355 -436 0
24 28 487 0
187 -216 452 0
319 353 367 0
32 -99 149 0
320 445 472 0
198 216 -380 0
284 306 -423 0
124 -342 444 0
75 -166 -444 0
-99 252 -325 0
-243 266 -499 0
-56 -173 -475 0
-208 -411 -486 0
214 -230 300 0
-151 292 -468 0
226 317 415 0
9 122 304 0
14 -266 316 0
-113 195 -297 0
-14 246 351 0
-53 -279 463 0
282 392 -428 0
120 -145 311 0
10 -173 440 0
-146 180 -260 0
295 -317 -468 0
97 -116 219 0
-85 -282 -352 0
-293 314 -425 0
-136 -185 453 0
-90 161 405 0
-34 67 -364 0
125 246 -314 0
-5 203 269 0
-171 -234 -374 0
5 15 333 0
-371 -442 465 0
193 -314 397 0
-195 -474 -493 0
-41 -97 493 0
278 -357 366 0
-91 109 470 0
261 293 295 0
18 57 377 0
53 358 -470 0
-142 -436 474 0
33 -167 -446 0
252 -254 -367 0
-29 -230 409 0
-200 234 368 0
-69 -273 488 0
53 -308 335 0
-27 -195 -460 0
-219 -282 291 0
-190 -358 -469 0
25 216 340 0
-31 164 234 0
-3 -275 -425 0
35 185 -259 0
42 -141 218 0
35 134 -231 0
14 407 457 0
93 175 -443 0
-266 -384 -471 0
-39 306 -436 0
-41 378 489 0
43 44 -461 0
331 -388 444 0
-261 277 438 0
171 249 454 0
-116 -122 -312 0
-75 325 391 0
149 228 365 0
188 410 -429 0
-354 -475 -493 0
-16 -38 -426 0
155 253 270 0
88 -198 -270 0
214 -345 458 0
48 -177 361 0
225 256 -317 0
74 156 212 0
78 -80 447 0
64 -207 276 0
-197 -309 358 0
-247 271 -344 0
103 -170 467 0
-144 -381 -388 0
82 275 -382 0
204 223 -348 0
58 -197 277 0
28 -136 196 0
-131 -448 -474 0
115 183 -490 0
-106 -134 -440 0
-96 -220 242 0
-29 -46 -357 0
126 -384 435 0
222 -249 265 0
206 251 487 0
-81 -176 -374 0
-95 378 383 0
202 208 311 0
-307 -371 497 0
66 -338 -457 0
121 279 382 0
-308 383 -464 0
60 184 -286 0
256 283 286 0
155 175 -463 0
318 -372 -378 0
-124 -237 -462 0
-1 52 447 0
231 291 -325 0
-358 -414 487 0
170 191 338 0
-215 -338 475 0
7 142 297 0
-254 304 405 0
19 199 -275 0
-199 -239 -446 0
117 -187 -237 0
163 221 -432 0
-126 128 -190 0
-190 394 411 0
-9 -97 111 0
41 -389 -413 0
-283 -401 410 0
228 -392 -483 0
238 358 -405 0
-272 -326 -341 0
189 196 -252 0
113 315 353 0
44 -140 456 0
246 351 -493 0
-279 -328 -412 0
117 -368 435 0
-108 -161 444 0
13 56 -487 0
-439 466 -488 0
212 275 476 0
-131 204 -384 0
90 -318 -403 0
-47 -123 -141 0
27 100 -385 0
-188 -415 -433 0
-108 -385 -500 0
-43 143 -173 0
61 318 494 0
158 339 -467 0
-163 -311 451 0
-126 234 -255 0
296 379 -417 0
-314 -492 496 0
60 -174 -455 0
224 -392 -475 0
98 292 -336 0
-19 -142 -201 0
148 415 -440 0
64 -315 349 0
-201 -308 -467 0
157 421 426 0
23 346 479 0
-264 -335 476 0
-4 -185 -280 0
174 244 -320 0
148 188 305 0
-185 -243 -489 0
-40 217 -371 0
261 277 491 0
-278 376 406 0
-98 110 441 0
-78 249 -396 0
-180 339 -474 0
173 358 -421 0
64 203 -343 0
182 -327 -452 0
-79 245 426 0
26 -142 -335 0
-21 -328 364 0
-57 179 260 0
74 -133 -165 0
-58 -152 173 0
11 240 487 0
129 188 386 0
223 -276 458 0
94 -346 474 0
131 184 385 0
-123 -316 494 0
-126 -382 -465 0
31 -341 -480 0
307 -367 392 0
201 -205 -269 0
179 197 -401 0
24 -377 456 0
-7 72 -175 0
-145 324 442 0
54 410 473 0
-105 166 239 0
-21 -82 -164 0
46 102 372 0
-24 28 -102 0
-12 -268 464 0
108 -115 -124 0
-121 266 -453 0
-45 -118 -364 0
-182 -211 -341 0
-101 250 -496 0
39 -41 322 0
45 -107 192 0
-69 255 -263 0
-53 -151 201 0
16 -130 -398 0
-119 -340 -494 0
-68 166 -396 0
-122 -314 -400 0
-20 -153 380 0
-3 -122 -126 0
-110 116 367 0
66 -259 451 0
-52 225 -240 0
127 -134 189 0
-289 311 374 0
159 192 381 0
127 -274 400 0
56 -115 449 0
175 252 -489 0
66 303 474 0
86 174 347 0
-197 315 340 0
32 391 -408 0
-95 350 498 0
-1 -197 416 0
-92 -191 426 0
260 290 -341 0
251 -368 -438 0
-87 -110 -390 0
-46 186 -269 0
31 453 -465 0
177 -192 -469 0
28 334 -407 0
-59 -253 -330 0
227 -310 -427 0
-59 -166 -350 0
-19 -191 -259 0
-230 -300 -384 0
-168 385 390 0
-178 -266 -454 0
-94 -161 233 0
13 199 237 0
62 150 -497 0
-135 -304 -316 0
-263 297 362 0
150 165 -329 0
229 344 -462 0
-97 200 372 0
-130 135 -214 0
131 142 -253 0
-134 347 447 0
-192 358 482 0
306 -464 473 0
-95 336 398 0
-88 -122 223 0
253 319 -431 0
-89 -155 416 0
90 376 -493 0
-267 397 -423 0
225 -349 -420 0
-157 190 400 0
107 -179 -302 0
131 -132 -255 0
302 401 -474 0
274 385 424 0
285 328 -473 0
-3 93 -462 0
294 -404 428 0
-60 -180 461 0
258 -317 -499 0
-234 -355 -473 0
-39 -88 434 0
-185 217 -303 0
-55 111 -139 0
12 -173 442 0
71 247 343 0
164 -287 -344 0
102 342 385 0
-20 -133 175 0
-117 127 361 0
-39 87 -486 0
-248 283 334 0
136 -397 -481 0
-266 -346 -356 0
-302 -449 -475 0
195 -239 261 0
226 387 -420 0
25 -257 369 0
-317 347 -350 0
-196 -327 425 0
-119 -408 451 0
-34 96 202 0
40 -176 247 0
-30 269 349 0
-273 -309 -382 0
86 -145 -422 0
-71 210 -405 0
-21 -212 -453 0
-340 -428 483 0
31 138 -312 0
317 407 -410 0
-24 -484 -487 0
300 447 487 0
53 -274 479 0
-129 293 467 0
162 236 -499 0
-23 -266 308 0
-125 130 220 0
-26 409 -437 0
-183 -379 407 0
-84 182 369 0
-233 448 -496 0
39 -59 71 0
-194 303 -457 0
-86 -102 144 0
59 -187 434 0
-37 -169 176 0
364 370 378 0
280 324 401 0
-231 250 -315 0
142 187 -287 0
4 -281 -285 0
77 -279 310 0
-162 325 341 0
-128 338 -467 0
99 334 377 0
115 -174 -227 0
245 340 367 0
9 -145 -339 0
258 -433 -435 0
23 164 -238 0
125 244 276 0
-61 153 -486 0
93 273 457 0
107 -488 498 0
174 -379 -468 0
179 267 -284 0
-40 -55 -375 0
-140 -277 371 0
-55 -62 354 0
172 256 306 0
109 -282 382 0
-102 233 -249 0
-98 136 317 0
38 -267 399 0
-28 -289 -376 0
12 -227 268 0
244 -350 380 0
-216 -388 458 0
41 -214 351 0
-165 332 457 0
41 -143 209 0
139 -423 449 0
-23 89 -151 0
-49 110 -122 0
-20 100 403 0
239 -309 330 0
-44 -103 -424 0
52 -341 -407 0
-123 -263 -481 0
40 -76 169 0
156 -269 -281 0
-101 -181 -461 0
-303 415 -448 0
-168 -412 -426 0
181 206 346 0
314 -408 -479 0
132 -176 384 0
-44 173 322 0
283 302 -387 0
-58 242 -385 0
-62 283 359 0
-264 383 404 0
-47 -79 -113 0
262 296 -362 0
101 269 418 0
58 332 478 0
-49 -128 307 0
22 107 -386 0
-336 341 -365 0
-91 339 342 0
-97 114 -320 0
-184 -355 -395 0
338 -408 417 0
-264 -277 -367 0
125 -218 283 0
42 272 353 0
-199 260 -354 0
-122 -169 401 0
-77 -398 -411 0
-19 -58 223 0
346 -387 -424 0
166 -279 348 0
116 -441 490 0
72 -195 259 0
-67 -140 -216 0
91 -246 -303 0
116 279 -330 0
36 215 495 0
33 -63 -472 0
139 -199 359 0
-244 -341 -450 0
28 -69 184 0
-71 -395 437 0
-176 324 -465 0
3 -22 -363 0
-145 148 398 0
-65 -141 425 0
-96 -183 300 0
113 137 -438 0
240 391 484 0
-154 -165 -207 0
25 -51 393 0
51 194 -486 0
-299 342 -464 0
-255 325 347 0
-2 188 -377 0
-243 -252 404 0
-10 -306 -410 0
198 -340 -465 0
99 360 -429 0
142 274 -498 0
-105 -266 276 0
-76 320 -461 0
-89 292 -348 0
-99 -339 402 0
-45 175 -225 0
-20 -304 366 0
344 -390 458 0
-19 39 458 0
17 87 -344 0
-45 96 -239 0
18 -40 402 0
117 -140 468 0
293 326 -436 0
107 -249 429 0
-209 -452 -495 0
450 -457 468 0
-2 70 -226 0
-17 -206 -221 0
-263 -344 471 0
111 208 -417 0
42 -114 -330 0
71 376 390 0
70 126 477 0
73 -223 225 0
-121 -265 452 0
107 199 343 0
-206 -399 -408 0
97 -235 370 0
67 -431 484 0
113 171 -273 0
-5 -382 388 0
-201 247 262 0
-48 131 276 0
-351 421 436 0
-168 -201 -424 0
-80 -388 -448 0
-115 188 266 0
-122 409 -469 0
-222 -264 320 0
-180 -420 457 0
-119 233 437 0
-238 264 -394 0
261 -291 452 0
-181 -211 253 0
208 228 -445 0
20 -115 -167 0
-16 -182 491 0
-241 -325 -455 0
-229 255 433 0
-132 -191 300 0
121 -398 455 0
1 -167 446 0
-77 145 -408 0
32 -122 -450 0
-19 291 -450 0
-35 -55 250 0
-84 -120 462 0
47 -203 -331 0
106 314 334 0
-4 5 -418 0
233 -335 -440 0
-301 -376 476 0
113 -302 -362 0
128 -140 -484 0
-20 -49 462 0
-47 -74 462 0
346 -350 393 0
-77 -447 483 0
59 -355 388 0
-209 -301 -383 0
-48 -53 -291 0
-269 434 -497 0
-34 -379 399 0
420 480 -491 0
209 -338 -425 0
109 -374 446 0
162 -304 463 0
-244 276 -385 0
-142 -330 -441 0
3 -123 -270 0
24 219 -471 0
-53 -318 -486 0
-58 -69 294 0
15 242 -395 0
215 -248 -382 0
-28 122 -183 0
-4 -45 -290 0
-38 161 -287 0
41 -241 390 0
34 170 -356 0
-216 341 482 0
-241 -449 -481 0
115 -117 155 0
123 -210 437 0
33 -247 332 0
49 -352 357 0
48 110 -459 0
-62 -197 249 0
96 -116 198 0
66 -223 404 0
33 283 368 0
133 460 491 0
128 221 -385 0
-14 331 -391 0
-19 93 -464 0
-132 -151 429 0
-91 118 190 0
-312 -396 436 0
254 -416 -474 0
-142 -289 -314 0
294 420 -423 0
64 235 -456 0
-184 260 -395 0
143 410 434 0
-188 440 447 0
-95 112 -289 0
-92 140 240 0
120 474 -494 0
-112 -176 -346 0
-51 -449 -454 0
-20 204 269 0
-48 -220 -285 0
-69 -174 281 0
-30 -166 -269 0
-47 -119 379 0
93 -289 -297 0
-192 249 -310 0
20 165 454 0
117 -214 -485 0
-18 -53 402 0
411 -421 -433 0
-157 322 -449 0
-75 269 487 0
111 -376 381 0
387 398 -405 0
56 209 -267 0
8 151 491 0
-110 -383 461 0
-6 -158 226 0
-56 246 -265 0
150 -246 -275 0
340 -475 476 0
-9 76 -232 0
190 380 464 0
-143 -236 -463 0
77 348 388 0
266 276 413 0
-246 -268 -357 0
-239 381 -466 0
84 -86 -461 0
162 332 350 0
-100 -177 -195 0
-115 276 430 0
260 324 329 0
-43 468 -477 0
-150 -270 353 0
95 -361 487 0
119 -290 301 0
-162 320 421 0
-10 162 -198 0
166 372 497 0
-27 63 450 0
-83 218 317 0
-113 -277 320 0
35 164 -314 0
-400 -449 491 0
10 61 -473 0
249 -314 444 0
-75 242 -319 0
-18 -76 188 0
-43 139 430 0
-90 -168 440 0
213 266 -499 0
110 -258 276 0
230 -294 -329 0
-22 181 -330 0
62 466 491 0
175 -357 368 0
14 121 -378 0
131 179 -401 0
-98 -289 444 0
141 412 491 0
19 -114 396 0
54 -240 286 0
229 401 476 0
250 -462 -467 0
-52 -162 -417 0
347 -419 -424 0
-258 -300 -382 0
44 -140 275 0
73 220 -426 0
286 301 352 0
38 393 482 0
-274 -447 458 0
-142 370 472 0
-23 -278 -326 0
-172 191 -465 0
39 316 -386 0
-296 380 -476 0
-148 -291 -324 0
-136 -149 -409 0
301 355 487 0
101 111 -276 0
17 -171 232 0
45 79 -328 0
-35 -167 -354 0
304 344 -455 0
152 153 -390 0
-456 459 472 0
268 418 -440 0
-170 -177 388 0
27 202 -446 0
38 -108 -391 0
-47 -122 487 0
-45 153 -275 0
139 -157 425 0
-103 379 -486 0
9 180 483 0
60 150 -438 0
-7 167 -246 0
-14 -277 326 0
-42 -153 -488 0
267 299 -470 0
377 -439 467 0
88 -152 233 0
188 -345 -384 0
3 31 -368 0
151 167 -408 0
39 197 -417 0
-80 266 492 0
-36 409 -470 0
-147 -232 471 0
20 224 497 0
29 210 -329 0
40 215 -488 0
-39 74 314 0
-208 -278 345 0
14 145 -260 0
-212 -220 361 0
111 297 -414 0
152 259 350 0
252 -254 -315 0
215 282 -362 0
-86 -188 -307 0
-67 261 -276 0
-303 364 428 0
121 -177 -415 0
131 -399 -436 0
-110 242 -295 0
-41 -111 190 0
-12 -47 -121 0
174 -302 -316 0
284 -406 -466 0
-12 360 -485 0
-42 212 -464 0
-36 -281 342 0
101 156 -255 0
21 -198 374 0
95 -276 371 0
-36 -193 -263 0
-232 -384 429 0
-105 121 -431 0
77 219 451 0
-253 -371 409 0
-235 287 399 0
26 330 -357 0
148 202 -464 0
234 308 324 0
194 429 -493 0
-76 152 305 0
278 366 468 0
-27 -289 421 0
30 -265 472 0
-267 290 490 0
-145 -199 422 0
-309 398 434 0
-21 -140 -186 0
13 320 373 0
135 443 -484 0
-448 472 487 0
-35 71 347 0
-30 120 262 0
-268 -353 382 0
-87 97 -233 0
-205 306 403 0
47 -230 380 0
254 -396 -466 0
-69 -225 463 0
-150 -179 -284 0
146 173 -481 0
-84 175 198 0
26 -41 -186 0
-139 144 320 0
-104 -284 418 0
280 -328 -486 0
-116 -261 481 0
-68 319 492 0
-76 451 488 0
16 -424 426 0
-178 -296 -487 0
143 216 -297 0
-61 -182 -446 0
113 429 -472 0
231 376 479 0
-38 -43 137 0
226 418 -490 0
44 103 274 0
26 38 165 0
76 -213 -476 0
-168 -355 -470 0
47 -284 437 0
192 -215 -387 0
89 231 -480 0
348 -392 478 0
167 -196 226 0
42 -406 496 0
218 294 -484 0
-248 265 272 0
299 -327 -456 0
103 337 415 0
146 164 406 0
-240 449 -472 0
69 -250 271 0
-153 183 456 0
96 200 466 0
-151 260 330 0
125 195 -199 0
-201 225 -341 0
-111 -124 218 0
-58 182 -248 0
-11 -227 433 0
-89 -126 -474 0
-216 270 444 0
-123 355 -446 0
209 265 -442 0
-226 -369 376 0
-123 196 -469 0
-226 234 -452 0
-220 -267 -454 0
-112 198 -448 0
41 -298 -496 0
-47 271 380 0
-225 -358 -481 0
-21 -151 -300 0
-365 368 474 0
27 -376 476 0
-71 -159 212 0
82 215 -241 0
-16 51 414 0
-155 -171 413 0
274 -436 -463 0
-219 424 479 0
-30 93 -460 0
-22 -267 339 0
-154 211 244 0
-29 -352 -413 0
-147 -311 -412 0
20 295 417 0
67 -162 200 0
-43 -218 348 0
-29 68 -414 0
-114 342 395 0
-240 -281 404 0
-206 -222 -427 0
83 -137 321 0
-53 -307 -448 0
112 -223 316 0
143 -148 -469 0
132 -340 420 0
26 27 215 0
-62 348 374 0
260 273 -374 0
22 -245 428 0
-205 432 -484 0
-150 -364 452 0
-199 -395 396 0
-207 -398 463 0
113 304 462 0
-147 -239 -331 0
-119 195 210 0
63 183 -440 0
24 31 -470 0
2 -81 245 0
122 -169 294 0
91 -197 465 0
-241 -282 -473 0
-152 224 -319 0
174 -175 -458 0
100 -137 250 0
-311 377 408 0
-83 273 -293 0
89 -188 -461 0
-71 -327 -366 0
-239 -384 -404 0
148 480 -483 0
-27 308 -388 0
-26 107 178 0
100 -295 -318 0
-112 -268 304 0
286 362 499 0
-212 -340 -462 0
-109 140 -213 0
33 -229 -265 0
-61 -176 434 0
-124 128 204 0
35 -211 -216 0
103 165 368 0
-76 -387 435 0
-311 331 378 0
-274 -386 401 0
-327 400 402 0
-86 102 152 0
-39 216 -442 0
152 270 437 0
-202 205 -288 0
-104 -168 -260 0
-250 -409 466 0
-11 -26 219 0
-74 317 -362 0
189 251 -412 0
22 320 342 0
266 417 487 0
-367 -390 -480 0
-80 278 -415 0
123 178 286 0
-288 372 -477 0
53 -130 -268 0
43 137 307 0
-75 197 343 0
264 300 477 0
101 112 187 0
254 322 -352 0
-59 -132 -140 0
100 121 -282 0
-147 -249 -354 0
-212 -222 -232 0
-372 -381 -393 0
174 -325 -444 0
44 -94 449 0
231 235 488 0
74 -108 388 0
-36 -60 283 0
-326 -415 460 0
2 110 -310 0
-306 368 -475 0
28 198 305 0
-94 -151 -253 0
-298 -468 472 0
-14 -179 -362 0
-23 -117 -400 0
-237 -283 316 0
-180 337 -488 0
28 36 -413 0
375 -402 422 0
202 216 455 0
335 -361 -472 0
-43 364 403 0
82 123 357 0
-155 283 441 0
-173 413 425 0
116 -260 -448 0
-89 334 -473 0
-250 422 491 0
-51 -196 366 0
-31 133 -255 0
179 332 485 0
-113 -310 -434 0
175 -413 492 0
-89 -101 355 0
-141 450 -477 0
33 359 -425 0
459 463 499 0
13 197 388 0
55 92 -474 0
-124 -159 207 0
231 356 367 0
208 262 482 0
135 -175 -361 0
-40 -58 311 0
-122 288 -289 0
56 -305 -354 0
26 -77 -386 0
23 -289 309 0
-344 417 437 0
44 -52 -145 0
-46 -197 236 0
85 -288 -467 0
-106 -226 498 0
-264 -294 470 0
101 -169 441 0
7 -166 361 0
2 -58 202 0
-52 -264 265 0
202 489 -491 0
-265 338 -496 0
8 58 141 0
268 487 491 0
-173 -208 -213 0
-234 415 468 0
-108 -162 327 0
-191 211 -374 0
256 -446 472 0
79 -442 449 0
20 145 -468 0
-9 170 -387 0
-172 -259 -496 0
106 -133 -285 0
-98 -208 384 0
87 -189 -412 0
-83 -359 423 0
155 275 321 0
188 316 -416 0
155 -232 -479 0
80 160 456 0
255 -333 412 0
-316 418 443 0
196 -384 490 0
347 380 425 0
-149 -304 -383 0
117 -170 -448 0
412 413 465 0
49 -426 480 0
-195 -236 297 0
-43 -201 426 0
46 271 391 0
92 -99 369 0
-6 271 -295 0
32 91 181 0
-288 410 487 0
-4 82 -304 0
-195 237 334 0
-45 -392 494 0
-225 -402 -462 0
-29 98 -109 0
232 320 457 0
50 230 441 0
-1 -294 385 0
110 144 360 0
-111 -326 429 0
-45 170 -281 0
82 -215 -369 0
-130 301 347 0
97 -275 409 0
-68 -138 -491 0
77 82 -369 0
24 -405 464 0
-202 267 -386 0
134 -136 -324 0
-33 -163 -199 0
34 -140 -177 0
176 223 269 0
-51 -123 -137 0
273 -340 355 0
109 -329 442 0
-202 -254 -417 0
189 312 -320 0
13 -75 -498 0
-45 -299 -469 0
-16 -76 -216 0
245 -246 385 0
-319 -392 -424 0
193 287 470 0
288 404 408 0
336 -452 473 0
308 407 420 0
-59 -71 263 0
284 -294 -341 0
58 -397 403 0
99 226 350 0
-255 387 460 0
66 -101 -200 0
-153 -430 -463 0
-2 343 494 0
338 396 451 0
-153 398 -463 0
-233 246 400 0
10 51 -314 0
-124 -129 295 0
-19 92 305 0
32 -274 -336 0
-298 -325 -413 0
89 119 483 0
232 361 -487 0
101 128 325 0
62 -89 -475 0
89 184 276 0
94 255 -289 0
-259 -317 419 0
161 -229 455 0
371 382 477 0
-133 -285 493 0
-359 367 -378 0
-338 439 -469 0
-312 -389 -426 0
-121 -141 -188 0
-111 133 -358 0
-211 -312 -401 0
134 -212 -494 0
-239 -247 421 0
-10 220 362 0
318 -399 -414 0
96 195 402 0
59 -103 -478 0
-355 -470 482 0
82 -381 464 0
-222 239 -476 0
60 270 441 0
164 223 -363 0
93 200 -282 0
122 381 396 0
-242 412 439 0
-253 -318 -465 0
-83 -352 -500 0
-202 270 -474 0
-211 -316 -454 0
-132 283 -496 0
270 -356 -415 0
18 -116 350 0
130 227 -379 0
-2 -19 280 0
188 -372 378 0
453 471 472 0
-191 263 -301 0
89 -133 -474 0
-286 -360 409 0
-19 359 480 0
-259 -378 -490 0
-10 122 -255 0
104 259 -358 0
208 307 476 0
121 -195 -278 0
-333 336 462 0
-9 -162 398 0
-113 -191 441 0
104 -207 298 0
43 -273 446 0
300 365 415 0
-35 -94 98 0
-27 -194 246 0
-7 -77 260 0
-89 473 490 0
-58 178 416 0
-233 -294 435 0
-205 209 415 0
47 260 -289 0
108 -219 -269 0
60 88 -470 0
20 155 -331 0
39 158 -168 0
-75 468 478 0
-63 435 474 0
-147 -300 322 0
-351 410 -419 0
-324 372 440 0
-22 -91 -176 0
-322 -411 -445 0
-25 -379 -394 0
108 -230 414 0
-35 167 -336 0
-96 113 413 0
68 -128 386 0
93 -234 331 0
167 324 -339 0
-253 277 356 0
-328 -395 439 0
-62 -218 -223 0
121 -262 351 0
92 -131 -385 0
37 88 98 0
199 267 453 0
63 -213 -375 0
159 -346 474 0
18 27 284 0
82 306 491 0
78 352 -458 0
115 -168 293 0
299 -325 477 0
248 333 -477 0
56 81 -167 0
164 -225 -488 0
5 16 -166 0
-220 332 -442 0
113 368 403 0
-61 -294 -493 0
-60 61 -108 0
209 234 379 0
149 -413 484 0
-32 96 -144 0
72 -195 -208 0
363 424 -454 0
13 -88 -224 0
-13 106 319 0
-142 -145 -201 0
123 -220 480 0
144 202 352 0
-186 234 -389 0
-41 -263 -357 0
-7 -19 -296 0
75 -108 -373 0
-102 -153 401 0
19 -187 -294 0
82 -422 478 0
-160 -190 -341 0
-60 103 -192 0
24 -93 457 0
-33 110 294 0
59 -297 409 0
-19 -73 383 0
-21 -224 -467 0
-51 -90 -343 0
126 214 -323 0
162 -264 -270 0
291 -296 -492 0
-417 484 499 0
107 256 353 0
184 -253 -351 0
12 201 -407 0
38 369 442 0
153 164 188 0
-114 -268 -336 0
46 106 -355 0
-6 -221 311 0
233 -318 378 0
35 209 -400 0
344 -351 -490 0
209 335 489 0
-191 -366 395 0
-214 356 490 0
-1 479 -484 0
-159 206 -345 0
-129 252 -468 0
-75 129 -194 0
182 -191 224 0
-190 -384 -482 0
-461 462 485 0
-52 -319 -336 0
183 477 -497 0
-114 -254 314 0
-102 228 347 0
-89 217 485 0
-115 116 214 0
261 331 -380 0
197 264 402 0
-115 -240 409 0
38 -71 431 0
-14 -141 -487 0
-227 -294 380 0
-174 -465 497 0
-254 -291 -350 0
-121 -404 490 0
138 -167 441 0
133 155 359 0
-21 279 352 0
31 -429 -467 0
-48 -293 -328 0
-165 -259 309 0
102 -128 -378 0
-74 269 448 0
88 -165 207 0
91 407 -436 0
7 -208 399 0
-369 393 -475 0
12 31 329 0
-345 -432 478 0
26 -130 460 0
-175 234 -328 0
116 356 -367 0
-204 -322 -444 0
-145 149 297 0
-163 -316 368 0
-27 -271 -294 0
200 243 413 0
-201 -420 -490 0
243 -332 -346 0
-37 59 -429 0
318 364 -470 0
88 -426 484 0
50 57 -357 0
-7 -175 -468 0
123 -404 -435 0
59 -204 440 0
326 -415 -440 0
101 -411 -429 0
59 -149 324 0
91 -201 -443 0
-255 272 404 0
85 117 470 0
78 -340 -378 0
-353 400 401 0
252 397 -467 0
-155 -159 167 0
169 -196 340 0
-42 -254 340 0
-360 -415 -422 0
146 -191 269 0
187 -328 -376 0
-130 -280 -493 0
-82 147 351 0
-11 -161 285 0
124 -257 -383 0
60 -166 224 0
114 206 262 0
-147 191 259 0
26 461 -468 0
352 414 460 0
-113 -125 310 0
-107 -309 463 0
181 -403 -480 0
168 -191 -240 0
313 330 -341 0
83 -383 389 0
155 177 -402 0
75 -203 -439 0
116 -208 238 0
326 -336 -443 0
-70 450 486 0
-238 -439 475 0
99 118 378 0
71 287 -413 0
81 252 304 0
-30 163 -333 0
-16 123 -329 0
-29 -244 375 0
13 -85 500 0
271 -465 -491 0
-10 -421 464 0
57 -243 -363 0
196 303 418 0
-108 410 413 0
-117 295 327 0
-271 -362 -428 0
377 -391 -398 0
-191 200 -333 0
-38 269 374 0
18 62 -475 0
-47 -366 453 0
2 32 228 0
-122 203 -402 0
128 261 329 0
21 26 -472 0
18 -60 266 0
302 304 -477 0
-161 -301 -371 0
194 -342 482 0
-241 313 365 0
12 40 -61 0
-251 -326 373 0
-195 -265 -405 0
-212 -286 435 0
-5 27 -90 0
-83 193 261 0
26 -212 -467 0
223 354 381 0
-20 -281 -381 0
-199 -272 -280 0
22 -192 445 0
-136 -365 385 0
-11 -374 -494 0
5 -245 281 0
171 376 423 0
-216 -335 -478 0
-225 317 366 0
58 83 -348 0
-252 -374 -456 0
182 219 -476 0
207 324 -335 0
-142 323 348 0
-69 391 -446 0
97 220 -373 0
-79 -367 469 0
-127 -138 -213 0
9 -336 -378 0
16 -139 490 0
-72 199 -457 0
187 442 478 0
-122 -359 -430 0
19 -285 -465 0
124 342 -470 0
-47 -67 -334 0
96 139 -198 0
27 350 380 0
114 -135 290 0
-92 -330 -349 0
75 -321 -390 0
-109 114 394 0
54 325 -394 0
63 -122 216 0
-191 198 387 0
325 -395 -419 0
-149 299 -300 0
-261 -387 -458 0
221 261 -366 0
-56 104 249 0
68 151 -319 0
143 -179 -318 0
277 392 -498 0
207 -339 -359 0
-177 -249 -498 0
-7 17 -80 0
22 -253 500 0
-244 -312 467 0
-106 149 182 0
-221 298 372 0
-146 329 447 0
5 165 381 0
-66 -69 -255 0
-96 118 144 0
359 -450 -485 0
54 191 -424 0
-58 -75 -344 0
136 -333 -381 0
27 -145 -204 0
86 -106 250 0
-6 -80 377 0
6 -233 393 0
93 218 -379 0
-327 -339 443 0
7 -30 259 0
-250 350 376 0
107 160 382 0
-189 232 -389 0
-164 -372 485 0
88 310 -396 0
194 -334 -338 0
-109 -281 308 0
20 124 -143 0
195 441 -497 0
264 314 322 0
-162 -288 -296 0
-15 269 -467 0
37 -101 105 0
-210 307 -463 0
-205 -423 437 0
101 -178 -328 0
-206 -212 425 0
138 393 496 0
-167 -214 297 0
76 -207 -242 0
-48 -429 -433 0
114 294 440 0
66 289 -413 0
-74 -120 -351 0
-12 -268 -394 0
-231 -352 -362 0
-249 296 -398 0
250 284 428 0
12 -305 327 0
276 -326 -355 0
-6 -157 -471 0
-14 99 -484 0
8 -182 -362 0
51 381 443 0
200 362 -392 0
-230 392 -467 0
76 -188 -226 0
45 299 301 0
-23 -49 349 0
116 209 -312 0
3 -254 423 0
75 157 347 0
-18 429 -469 0
38 303 494 0
261 401 465 0
-218 256 401 0
-16 103 -491 0
-229 292 -450 0
-157 -299 360 0
254 364 -436 0
96 178 -213 0
-202 -443 -445 0
-69 227 -369 0
-361 402 -480 0
-28 112 250 0
-55 161 306 0
40 -215 -307 0
-11 -145 -382 0
-86 -122 -248 0
-30 330 336 0
-73 -79 -422 0
21 101 -309 0
174 -429 498 0
30 174 -474 0
376 449 -458 0
30 132 -459 0
-18 -233 483 0
-299 326 -448 0
-189 -226 -416 0
40 -114 119 0
364 372 -489 0
164 247 257 0
-82 -279 -286 0
-40 285 -382 0
-80 122 -335 0
-272 -399 -431 0
57 -80 214 0
157 -292 500 0
-277 -282 356 0
-4 -56 -431 0
183 -193 483 0
-249 308 366 0
-166 -404 -479 0
-255 308 456 0
-36 319 451 0
44 -259 390 0
-247 -336 450 0
8 206 247 0
-101 -138 -270 0
-80 319 359 0
68 -209 -328 0
229 244 286 0
84 146 444 0
-269 273 -402 0
-219 306 -464 0
-57 417 -458 0
33 59 -376 0
-249 -258 412 0
-105 -301 328 0
95 -262 -426 0
106 -369 -390 0
296 -458 -462 0
-220 -371 473 0
-75 378 -434 0
102 178 -451 0
-123 -283 -303 0
-122 -223 464 0
-50 -98 -281 0
122 -328 482 0
-138 191 300 0
234 -260 -464 0
384 -400 413 0
-64 -355 400 0
4 110 327 0
-1 -169 -246 0
-192 257 -458 0
85 -214 -328 0
-172 364 -443 0
107 398 433 0
161 168 -351 0
97 -238 271 0
-16 309 -440 0
-208 347 -496 0
299 -377 -439 0
363 399 -409 0
-55 -334 472 0
-255 -284 -327 0
224 382 482 0
-249 -381 -383 0
-281 288 -377 0
-309 -361 -460 0
-1 130 -225 0
145 -318 494 0
36 -209 -225 0
54 -211 426 0
384 -394 -399 0
246 -266 339 0
219 294 -306 0
-346 370 -433 0
-51 -295 400 0
-284 -324 492 0
196 312 -412 0
211 -240 397 0
-344 395 -450 0
-103 138 -190 0
208 300 -327 0
-97 148 -330 0
12 -223 -279 0
42 -75 139 0
177 -285 -303 0
105 272 358 0
-227 -397 -486 0
73 117 -189 0
118 192 -414 0
-357 402 461 0
50 144 -146 0
-71 -209 433 0
42 136 169 0
58 -69 219 0
-155 -289 -442 0
-135 -136 377 0
-11 365 -385 0
61 234 425 0
-149 182 327 0
215 352 -433 0
-66 -156 -289 0
-19 111 -276 0
248 -379 442 0
17 -292 448 0
-3 133 -179 0
185 -434 -473 0
209 222 -308 0
14 39 -133 0
-20 -22 -425 0
127 -355 -472 0
-48 158 -408 0
-4 89 -480 0
114 -120 -364 0
-140 274 391 0
138 -145 386 0
98 167 344 0
-124 375 423 0
-85 -265 -363 0
104 -246 416 0
217 233 -361 0
-55 -358 -409 0
-17 -153 227 0
44 180 256 0
-111 270 -357 0
118 409 -478 0
135 144 -386 0
31 -144 273 0
234 -241 -358 0
34 -136 -341 0
-20 -389 486 0
-6 150 -178 0
-87 -220 240 0
117 -229 -468 0
224 268 390 0
50 199 -398 0
19 -150 -439 0
-159 408 411 0
-187 -343 -378 0
198 377 495 0
252 -402 -406 0
-64 291 491 0
-113 352 447 0
-159 249 -273 0
84 -151 426 0
-54 99 129 0
77 -119 244 0
-92 203 -337 0
-24 -132 413 0
-79 -188 422 0
45 -171 -477 0
212 349 380 0
-210 -309 468 0
-10 17 -190 0
43 323 470 0
234 286 318 0
26 -54 -203 0
-6 -300 -315 0
26 -263 -271 0
88 394 -400 0
-178 200 428 0
-98 291 297 0
-145 304 422 0
-154 278 415 0
318 427 -476 0
-31 287 -438 0
24 175 -363 0
142 -308 -490 0
-6 367 386 0
-32 252 -269 0
221 -355 -499 0
231 255 -475 0
-104 256 -336 0
-257 -283 367 0
-297 478 -492 0
287 342 -404 0
68 155 -334 0
-9 212 -392 0
20 242 -308 0
-14 173 -456 0
-13 -272 -356 0
-207 264 277 0
142 312 482 0
22 -39 416 0
267 -318 400 0
153 -163 -233 0
-19 -284 470 0
-38 168 -296 0
102 -139 491 0
65 -120 309 0
194 -201 -409 0
-84 -166 -315 0
268 409 458 0
-45 -206 420 0
-276 -286 375 0
91 292 304 0
-77 -239 -421 0
2 60 319 0
-281 367 438 0
53 236 -290 0
374 -419 447 0
97 -123 -169 0
59 278 -493 0
278 305 -462 0
-245 -339 -434 0
-163 353 490 0
-298 -394 -473 0
-10 255 498 0
2 -41 -213 0
87 213 -357 0
62 -70 362 0
77 -393 494 0
75 -332 -381 0
100 -394 435 0
252 -273 -344 0
-12 -164 338 0
-8 327 487 0
250 -252 -279 0
-239 -269 -382 0
183 -280 -371 0
38 215 359 0
15 375 382 0
291 -303 308 0
269 274 -465 0
44 -296 -335 0
424 -426 -487 0
-141 -383 421 0
-33 -88 101 0
-86 330 -422 0
-80 153 -228 0
-229 292 312 0
26 -191 300 0
-15 141 -189 0
52 -146 -183 0
30 -235 -354 0
118 189 -314 0
-150 -175 -381 0
-19 99 299 0
-241 369 486 0
-62 359 457 0
-131 311 365 0
-83 226 241 0
272 -374 480 0
303 -304 -444 0
-32 248 -272 0
-22 -26 -314 0
-182 -199 405 0
156 -234 306 0
79 313 -351 0
109 135 -167 0
-146 -291 413 0
36 106 -153 0
-7 -17 -84 0
155 -231 -273 0
16 -41 -165 0
-54 -60 -336 0
122 -440 -455 0
-72 -124 422 0
-71 -193 464 0
-39 -45 -120 0
77 150 275 0
-152 176 -417 0
-27 -35 -141 0
-335 357 -402 0
75 -124 -280 0
157 218 -229 0
-69 106 -379 0
228 252 277 0
-111 149 -398 0
126 298 477 0
-93 301 302 0
59 -110 -151 0
-182 211 -330 0
204 338 -487 0
303 324 423 0
-70 -76 397 0
151 251 452 0
100 -114 219 0
-4 185 212 0
67 -75 439 0
176 -227 280 0
-30 61 -253 0
171 -248 280 0
-208 334 -337 0
-229 434 -483 0
-146 -350 435 0
83 -373 -440 0
-57 -282 397 0
34 301 -399 0
116 350 -432 0
-80 -143 -189 0
34 63 421 0
3 357 441 0
-39 -191 -193 0
90 -149 258 0
359 -362 448 0
-39 -302 -345 0
-4 -25 240 0
-31 159 -186 0
-175 -303 -351 0
-17 86 320 0
-63 -87 348 0
173 260 -425 0
196 -313 496 0
-23 286 -309 0
-182 231 430 0
75 -325 -424 0
56 -208 420 0
-173 -259 488 0
80 396 460 0
204 232 -375 0
-70 216 -365 0
213 -325 377 0
-5 70 -245 0
-265 416 438 0
-260 -300 -393 0
-171 342 431 0
-244 -255 324 0
-102 398 -442 0
81 98 194 0
-242 243 -489 0
-149 -302 -437 0
56 138 -331 0
15 81 293 0
35 295 -362 0
-43 -194 451 0
30 -186 369 0
49 -145 313 0
7 -212 388 0
286 -357 -498 0
264 377 446 0
135 307 -379 0
138 -237 -350 0
32 395 -436 0
-39 -71 -295 0
14 -212 239 0
-2 -246 -464 0
22 396 493 0
-258 326 -418 0
-20 181 442 0
41 72 428 0
47 368 -400 0
353 381 -441 0
61 196 -466 0
-181 411 -459 0
101 331 382 0
320 392 403 0
81 -314 357 0
122 -225 448 0
-47 283 -291 0
-258 -401 -435 0
109 244 -369 0
128 -395 -498 0
54 -252 -276 0
106 114 -364 0
-40 397 -466 0
-35 128 386 0
-85 94 -337 0
-54 300 -486 0
320 -378 431 0
-32 259 396 0
-147 160 -228 0
-58 -372 -394 0
126 -265 451 0
-151 452 -475 0
1 -374 397 0
136 -222 -412 0
-45 288 406 0
158 302 -383 0
169 190 -408 0
209 412 -497 0
165 350 404 0
245 311 -335 0
-186 275 379 0
13 -154 398 0
-152 317 323 0
72 -177 -479 0
34 167 479 0
161 299 382 0
-22 281 -386 0
-172 178 409 0
81 388 456 0
18 416 -459 0
131 154 -416 0
144 156 -493 0
181 397 -500 0
-150 -238 382 0
75 -127 355 0
-201 407 -431 0
38 204 305 0
8 -168 268 0
29 455 489 0
186 256 384 0
51 -207 -308 0
-151 -188 413 0
-279 -368 -424 0
-33 -196 345 0
-16 -58 304 0
-201 -210 -359 0
