c description: Random 3-CNF over 500 variables and 2129 clauses
c generator: CNFgen (0.9.6)
c copyright: (C) 2012-2026 Massimo Lauria <massimo.lauria@uniroma1.it>
c url: https://massimolauria.net/cnfgen
c command line: cnfgen randkcnf 3 500 2129
c
p cnf 500 2129
-205 -228 -405 0
-193 238 -279 0
-148 298 336 0
31 -358 -360 0
62 -219 419 0
-263 264 -396 0
-124 -146 471 0
82 157 -334 0
56 80 -413 0
84 344 396 0
-118 -349 -441 0
154 236 -387 0
-170 304 474 0
87 213 230 0
-131 -179 -315 0
16 23 -310 0
48 -299 407 0
-99 141 -499 0
-1 306 433 0
-143 -276 333 0
-30 300 -363 0
115 300 445 0
144 160 454 0
-76 369 -473 0
-119 -408 433 0
398 474 500 0
-13 -287 -370 0
-126 -461 -498 0
-127 236 332 0
-52 259 269 0
-235 303 -386 0
20 -166 261 0
26 148 291 0
134 143 -438 0
-121 -247 -384 0
-202 -216 -273 0
-114 -265 465 0
-158 293 317 0
316 -457 464 0
10 -65 -253 0
14 75 -495 0
-218 -384 -435 0
-17 124 -322 0
17 109 247 0
143 -151 -423 0
-73 235 -452 0
-227 -268 312 0
235 410 500 0
-185 259 344 0
-21 137 -202 0
128 444 -486 0
14 -52 339 0
30 273 480 0
-96 111 -421 0
-134 282 433 0
-94 -277 404 0
-193 -306 -478 0
246 -258 307 0
-26 -142 -395 0
-31 -171 487 0
110 126 386 0
3 -35 -36 0
-35 -341 -436 0
-116 452 -494 0
27 -188 466 0
18 94 -368 0
230 248 -308 0
-269 275 378 0
-173 -198 -261 0
-174 -360 -400 0
32 -65 375 0
-47 -271 -321 0
50 315 335 0
66 198 437 0
131 -182 295 0
277 -413 416 0
40 -321 460 0
-15 -230 -314 0
-127 -290 353 0
-63 135 -389 0
-51 65 409 0
212 293 -415 0
-108 -246 472 0
25 -252 479 0
-98 -150 307 0
-278 -414 464 0
92 200 467 0
-50 -364 -444 0
-73 -215 305 0
-144 313 -338 0
-148 393 -428 0
255 -319 -382 0
22 237 -389 0
169 351 362 0
84 390 482 0
25 -83 282 0
-258 -313 -387 0
155 162 -346 0
-54 240 -489 0
56 63 -388 0
178 -200 -305 0
15 61 263 0
112 -227 361 0
152 -229 -462 0
282 -331 479 0
178 372 -430 0
9 -356 -498 0
-9 -89 386 0
-34 -101 -442 0
333 388 -462 0
-37 297 -447 0
-124 -317 497 0
93 -165 292 0
271 320 -400 0
43 -128 -303 0
-234 -365 -447 0
-45 -126 -312 0
70 195 341 0
250 -276 349 0
-128 -156 370 0
-108 -112 262 0
205 323 358 0
-191 -327 437 0
-305 -332 -472 0
3 -187 -309 0
11 -13 -105 0
130 297 308 0
-58 -196 -435 0
8 217 -397 0
-76 -148 452 0
-181 -308 408 0
82 -445 -449 0
-32 206 -256 0
-198 -463 481 0
-8 -97 -376 0
-7 82 -482 0
143 -357 416 0
-45 -308 -354 0
227 -358 413 0
265 374 -480 0
67 -216 -376 0
57 324 -378 0
75 -256 260 0
-412 448 -485 0
114 -301 464 0
-148 283 -305 0
-111 259 -471 0
-216 368 466 0
41 261 -350 0
-51 115 -489 0
-163 320 -368 0
-135 443 -483 0
-185 -194 287 0
182 346 -462 0
18 -95 100 0
-65 -171 -458 0
50 -121 218 0
-70 -330 333 0
49 105 212 0
-27 -63 -343 0
83 -100 404 0
362 452 -486 0
-53 67 146 0
463 485 490 0
-257 -460 -467 0
27 -439 -468 0
-39 -46 208 0
73 -395 494 0
57 393 464 0
-195 205 -413 0
178 -418 -484 0
-197 376 -499 0
-168 -469 -478 0
265 -287 418 0
46 155 -371 0
-276 -329 -347 0
11 -454 -466 0
-307 357 -483 0
-51 -142 -461 0
136 148 441 0
-17 -155 -273 0
-67 175 -267 0
95 277 -391 0
374 414 492 0
-37 -79 311 0
-161 -333 487 0
4 -219 -448 0
-355 -392 -451 0
-190 -321 458 0
61 -279 317 0
90 125 499 0
-90 -392 -405 0
-159 223 347 0
-1 152 209 0
352 423 -457 0
143 207 -471 0
118 123 252 0
-111 -211 -427 0
414 466 474 0
123 294 -367 0
9 75 -200 0
-207 -218 -486 0
229 -375 475 0
14 -117 465 0
-99 -374 490 0
349 -395 485 0
-159 -227 430 0
84 -272 -355 0
-84 280 -485 0
6 -340 -411 0
222 -226 236 0
218 365 375 0
-174 -222 332 0
41 327 -420 0
-16 -125 -487 0
-152 -243 476 0
3 160 -217 0
4 -5 -322 0
44 -171 -251 0
-23 -94 -377 0
143 339 405 0
-415 -462 -487 0
360 399 -493 0
-200 279 -297 0
26 -223 366 0
148 -265 -492 0
-178 243 384 0
-72 156 -264 0
19 207 294 0
-80 -156 366 0
65 232 400 0
183 -215 416 0
-369 439 493 0
3 61 268 0
-297 -346 390 0
-127 -160 480 0
285 371 -377 0
-260 306 472 0
-104 -173 230 0
193 -197 -265 0
275 -360 -427 0
-35 248 -335 0
116 200 -273 0
31 200 215 0
-200 225 432 0
43 432 -468 0
-130 196 -474 0
-183 -289 -439 0
-46 230 364 0
379 411 -460 0
142 213 473 0
187 361 -404 0
104 157 161 0
47 -219 437 0
-132 -152 372 0
19 -80 -149 0
82 322 -397 0
17 329 -374 0
-58 248 -306 0
113 262 299 0
-130 -268 -389 0
-335 338 500 0
158 164 214 0
-48 -141 472 0
-19 175 -463 0
205 335 -411 0
-258 293 351 0
134 -446 449 0
-150 168 -366 0
-43 -176 294 0
-31 -37 143 0
79 -382 -495 0
229 401 -476 0
155 332 422 0
95 166 -390 0
-8 194 -441 0
-65 -232 327 0
23 99 -176 0
341 -467 499 0
-175 -323 345 0
-312 336 -456 0
76 -236 279 0
-101 106 -149 0
12 -267 -330 0
8 -22 -284 0
298 349 462 0
162 436 -486 0
25 -45 -372 0
-110 219 -369 0
42 312 -371 0
-228 334 424 0
70 270 310 0
-66 357 -398 0
-9 83 301 0
19 -175 434 0
168 305 356 0
110 -383 500 0
-183 -399 452 0
-64 226 -390 0
-19 271 -333 0
-90 187 -499 0
202 -226 -468 0
-248 -396 -471 0
178 -347 462 0
-316 -348 462 0
-20 -124 -280 0
76 190 -267 0
-289 450 -490 0
-69 92 499 0
-227 -342 -491 0
-141 -203 468 0
163 -425 -488 0
90 114 -149 0
197 367 428 0
249 -286 -492 0
63 -129 -379 0
-309 388 457 0
262 356 -370 0
4 -6 -239 0
-50 194 -336 0
299 -386 418 0
-136 -215 414 0
185 -210 -440 0
-121 287 412 0
6 330 414 0
159 209 -295 0
-356 -479 -487 0
-54 -359 436 0
208 -279 -426 0
-143 -164 -204 0
-123 -484 488 0
-241 -308 426 0
126 368 455 0
74 -184 -248 0
79 162 286 0
-95 121 356 0
381 -410 -435 0
-316 -327 -363 0
59 -328 -489 0
6 -253 -340 0
-22 -190 -251 0
183 228 -449 0
184 273 -369 0
197 -312 320 0
266 288 -356 0
61 -104 337 0
-123 178 318 0
-217 -288 487 0
-163 344 404 0
-326 349 -449 0
294 332 461 0
-130 138 -275 0
124 -224 319 0
-103 174 490 0
210 250 336 0
-29 -118 338 0
365 450 -468 0
-158 -270 -289 0
-98 -246 399 0
-83 227 -369 0
-103 114 -247 0
-21 -66 180 0
-82 -113 121 0
-127 150 -479 0
-186 -207 262 0
-86 183 357 0
75 -281 -488 0
21 -180 286 0
19 -106 -122 0
-334 396 -464 0
-22 -71 -207 0
165 -420 462 0
296 -328 -333 0
23 168 450 0
129 -158 244 0
-44 -435 -472 0
-215 -423 493 0
-217 232 492 0
-31 -88 -339 0
-304 -324 364 0
257 -312 340 0
78 -107 -442 0
65 161 -284 0
41 -423 435 0
-30 53 -73 0
268 -325 461 0
39 -237 -297 0
-36 -38 -304 0
33 52 -475 0
-102 -136 170 0
311 -380 383 0
-38 -80 -261 0
-73 265 319 0
312 -337 -420 0
-138 -271 -392 0
-37 442 447 0
-172 -190 311 0
351 -389 477 0
229 260 -489 0
212 -222 370 0
-432 490 494 0
155 382 -459 0
64 -200 313 0
79 -172 -362 0
10 138 -419 0
-238 339 374 0
-202 362 -426 0
-156 -183 -441 0
-89 -311 446 0
-79 98 382 0
-248 -386 -392 0
98 -321 341 0
-354 -356 -389 0
66 -106 -268 0
-23 -249 -421 0
-244 350 364 0
316 -317 -364 0
188 -292 320 0
-13 139 405 0
17 -280 -484 0
-61 274 416 0
13 137 -319 0
-432 445 477 0
-142 -148 278 0
71 343 -457 0
-44 217 242 0
10 -124 143 0
180 218 352 0
268 -310 -323 0
-120 -345 -419 0
263 -278 293 0
-58 -93 -343 0
-1 -441 455 0
-18 -144 365 0
-112 266 336 0
31 -170 -374 0
-38 -72 230 0
256 -365 -369 0
-21 70 -103 0
36 -132 138 0
-52 370 440 0
61 -321 477 0
-81 -224 322 0
226 -447 -482 0
-201 -203 -471 0
-78 -339 467 0
-307 -449 461 0
-32 43 -498 0
-11 69 -292 0
-92 -313 -376 0
-8 30 473 0
7 -132 -333 0
45 62 -469 0
-72 212 -263 0
46 -213 332 0
168 -408 457 0
161 201 289 0
-83 -299 312 0
99 -200 -214 0
-51 306 339 0
358 478 489 0
-252 312 471 0
-35 -189 -382 0
-71 -233 302 0
-62 -398 436 0
-66 -397 -477 0
-117 406 464 0
-349 359 -388 0
10 -126 -190 0
-222 -246 296 0
-55 -132 235 0
-106 139 287 0
-242 251 -437 0
-109 -225 267 0
3 -195 -265 0
-10 -250 -357 0
-160 -161 192 0
62 296 452 0
-142 -260 433 0
-210 -385 444 0
12 -132 -412 0
-39 -69 -168 0
-175 212 437 0
-17 -184 331 0
-196 -339 408 0
2 -273 378 0
-257 -298 497 0
181 -217 -500 0
-137 -153 -412 0
31 196 318 0
62 63 276 0
49 -87 198 0
122 300 -494 0
-78 141 154 0
3 44 -226 0
185 334 365 0
-85 -302 391 0
-100 -277 -381 0
-21 -164 -383 0
-101 -126 420 0
-26 -78 -126 0
116 -191 425 0
-116 -119 -454 0
-116 -201 -330 0
-202 364 428 0
24 -95 -486 0
241 -361 427 0
-94 363 398 0
299 375 419 0
24 106 207 0
29 -221 -426 0
-74 235 -287 0
28 235 373 0
-410 420 -477 0
-53 102 -199 0
-101 -108 212 0
45 380 475 0
-139 147 169 0
-221 -261 -467 0
284 -365 -473 0
267 391 421 0
117 -324 -368 0
43 -100 412 0
5 -74 -495 0
-22 39 318 0
-2 -178 367 0
209 264 344 0
-107 249 466 0
-163 -437 497 0
-291 -304 -466 0
291 -340 408 0
-326 -398 443 0
310 -311 -425 0
-50 -161 264 0
72 -348 -396 0
-153 -164 413 0
172 -277 287 0
68 -193 -452 0
27 49 -210 0
93 -304 468 0
-152 251 298 0
-6 489 493 0
-127 -210 -414 0
7 -64 -311 0
30 -53 -350 0
-14 -30 -68 0
75 262 369 0
8 92 -281 0
-65 -190 376 0
-125 -275 -351 0
3 -100 -384 0
18 91 457 0
-121 -343 406 0
208 241 363 0
-3 292 -447 0
-89 -160 -200 0
63 144 -491 0
-254 353 399 0
64 76 -275 0
46 -92 105 0
364 385 -468 0
47 -229 -480 0
333 366 -444 0
64 -191 -314 0
-115 -116 -215 0
-96 -363 451 0
-131 -329 -390 0
-189 -203 -451 0
25 34 -339 0
-37 243 447 0
22 41 -443 0
-258 -490 -493 0
163 -311 -429 0
-86 -182 -392 0
-63 129 -453 0
48 352 412 0
-75 141 -385 0
161 382 -473 0
127 199 228 0
-67 -100 -307 0
137 -210 -374 0
141 -310 483 0
-79 158 227 0
-204 -275 -295 0
-298 -368 -460 0
191 -222 -426 0
31 -60 196 0
3 230 -267 0
90 312 358 0
-28 -150 -237 0
-44 -71 -496 0
-29 -127 234 0
160 322 470 0
291 373 438 0
46 190 -291 0
-56 -350 -463 0
-308 -356 461 0
-171 -318 403 0
225 -237 -415 0
-102 -132 474 0
-21 -46 236 0
137 -154 400 0
291 -293 -376 0
33 280 -287 0
-373 462 -499 0
-185 252 389 0
-77 -128 -144 0
-77 -243 -376 0
67 193 -288 0
-226 360 407 0
11 185 -327 0
-210 -211 496 0
103 391 -433 0
-220 381 401 0
-302 -410 -497 0
24 453 473 0
58 228 384 0
-5 225 -413 0
-265 -331 -480 0
189 332 425 0
-203 -218 481 0
-134 440 491 0
-26 -293 470 0
315 330 -367 0
172 -181 272 0
48 -167 331 0
-70 -216 -350 0
-61 -223 303 0
-59 -172 361 0
2 -230 295 0
17 -411 452 0
201 257 392 0
-171 206 239 0
-300 316 -374 0
107 -305 456 0
-65 -325 424 0
88 114 -441 0
134 170 309 0
-69 -119 156 0
-125 190 -204 0
-88 284 346 0
126 -154 231 0
135 308 393 0
52 -292 412 0
19 279 336 0
216 227 230 0
-78 200 -253 0
-25 240 -276 0
-31 117 -203 0
-135 -388 -482 0
193 -205 -263 0
236 247 339 0
10 -175 229 0
196 -201 314 0
-15 -223 358 0
39 52 -390 0
18 162 212 0
3 198 325 0
-21 454 484 0
-59 202 -237 0
134 341 -446 0
239 -241 249 0
-11 57 -401 0
-15 -263 -411 0
66 -223 410 0
108 238 -435 0
64 310 451 0
-42 -437 453 0
-197 -422 -456 0
90 350 374 0
63 -216 -225 0
100 -321 -386 0
89 250 305 0
211 -438 465 0
50 -102 -201 0
232 327 428 0
-79 84 259 0
12 -138 466 0
-145 -213 421 0
282 456 -474 0
207 442 -450 0
102 -210 -380 0
-190 191 -356 0
257 269 311 0
-70 -124 226 0
100 148 -231 0
-24 -38 -186 0
-125 -387 -393 0
-75 -129 347 0
1 -392 -500 0
-99 256 -282 0
-272 -368 489 0
87 -151 241 0
-167 -244 253 0
331 -352 -482 0
91 -264 -292 0
-77 324 386 0
-55 89 -256 0
190 -225 441 0
-233 253 -311 0
-250 -476 497 0
171 417 418 0
-77 -291 -328 0
-116 -343 -410 0
-40 253 -498 0
148 160 495 0
-200 253 412 0
23 -252 -437 0
-52 -115 -303 0
-9 -15 -71 0
199 235 387 0
321 -336 -468 0
175 246 381 0
49 -149 253 0
368 401 468 0
301 364 -423 0
130 437 -496 0
-46 -190 289 0
-9 344 -482 0
53 121 -371 0
-287 340 -373 0
66 217 294 0
-121 184 -191 0
229 316 355 0
61 165 -247 0
25 -88 -258 0
297 381 499 0
83 197 -394 0
62 -346 452 0
-23 -237 -421 0
26 -71 385 0
-92 -162 256 0
9 46 -301 0
52 -140 -248 0
254 -417 -467 0
-268 -270 -302 0
2 -300 324 0
321 344 476 0
64 331 469 0
-193 -298 433 0
-231 -389 -404 0
-28 -72 362 0
-222 391 -489 0
114 262 -356 0
81 -327 358 0
121 -227 299 0
17 -45 500 0
239 -314 428 0
-334 396 403 0
-63 196 -413 0
101 -219 464 0
-161 -232 422 0
36 -322 -399 0
40 97 -379 0
-72 192 301 0
176 -241 467 0
49 225 -265 0
217 -364 -415 0
-53 -117 212 0
267 304 -375 0
-12 333 484 0
368 419 491 0
89 287 456 0
257 -414 494 0
-104 142 -276 0
-124 258 -269 0
-236 267 -410 0
12 142 428 0
-151 190 342 0
13 146 424 0
-129 449 456 0
61 393 -438 0
-64 -243 499 0
159 -175 -314 0
-230 316 440 0
-153 286 -473 0
92 -118 -491 0
-83 -192 -318 0
-40 269 443 0
-241 -369 409 0
-401 439 -441 0
253 416 -500 0
-172 186 222 0
-144 -303 -392 0
-124 221 228 0
-148 412 -454 0
-296 409 -469 0
211 -309 -448 0
-377 -400 448 0
222 -363 -419 0
-41 -174 265 0
90 -115 -190 0
106 206 -434 0
-110 139 -273 0
-210 211 -332 0
-110 -152 245 0
122 -365 -379 0
103 213 -390 0
-68 73 395 0
-12 414 454 0
434 466 471 0
-70 73 -431 0
-221 294 361 0
-257 -340 -482 0
-55 -201 330 0
-160 369 484 0
-135 -140 -285 0
44 63 276 0
-41 -350 -484 0
302 -379 -464 0
-276 -358 -476 0
224 -336 -357 0
-4 -17 -284 0
96 347 -371 0
200 349 -492 0
217 289 353 0
-16 -26 -362 0
40 169 -249 0
-205 -270 -294 0
-5 -255 -490 0
5 26 -354 0
41 -256 -328 0
-34 178 -330 0
-56 -232 -461 0
140 -167 -478 0
432 -451 -472 0
121 275 332 0
-18 148 379 0
129 -297 340 0
-268 -432 464 0
6 -38 -310 0
-76 -91 417 0
-41 272 394 0
100 -278 486 0
-46 -215 -221 0
-65 90 351 0
315 448 -486 0
107 -149 345 0
-38 -163 259 0
164 250 354 0
164 301 463 0
91 153 309 0
-18 -26 425 0
382 -444 472 0
281 376 -401 0
-119 254 -419 0
-18 -172 -443 0
-3 -221 -377 0
111 141 -288 0
-73 -387 -402 0
181 343 -465 0
9 113 207 0
-125 -307 -428 0
123 -391 449 0
-161 228 306 0
237 -269 -478 0
-13 122 -445 0
-107 267 -415 0
156 -399 424 0
21 -340 487 0
-20 191 389 0
-12 -93 -169 0
87 -141 -162 0
84 145 -270 0
-19 256 -479 0
53 127 263 0
-133 -171 -411 0
-264 339 -416 0
167 -206 500 0
55 -430 484 0
-111 180 -280 0
-231 302 402 0
-67 320 -438 0
381 -385 473 0
41 93 164 0
254 371 -459 0
77 -235 343 0
17 430 -450 0
-111 -186 -366 0
-128 -331 426 0
-160 -294 496 0
-26 -48 309 0
-22 261 -499 0
-133 304 315 0
33 -154 357 0
-85 -322 444 0
14 -90 -464 0
59 -158 -324 0
74 375 -403 0
-184 394 -416 0
-28 -278 481 0
270 -318 493 0
155 -181 -204 0
-261 -345 447 0
-80 -190 -393 0
-105 230 321 0
206 -250 -377 0
2 52 -408 0
-6 -427 437 0
-209 313 410 0
-20 -306 442 0
-127 230 -496 0
-100 -335 387 0
-175 -221 -348 0
-234 -268 -489 0
-109 -397 -494 0
78 -165 316 0
280 333 367 0
-173 265 -419 0
-310 -330 -469 0
-149 -153 483 0
-353 417 -479 0
358 420 -463 0
59 -369 373 0
-68 -152 170 0
-30 -295 437 0
1 219 434 0
-210 -357 -417 0
-24 -31 -494 0
-83 -366 379 0
100 242 -352 0
-10 -58 -107 0
-49 -196 -380 0
69 -448 -454 0
247 -298 -440 0
-24 121 398 0
-85 -102 -454 0
-126 348 386 0
-349 354 366 0
80 187 -248 0
-99 207 468 0
-173 -227 251 0
-215 239 -317 0
25 194 222 0
361 439 491 0
-121 -269 397 0
141 185 -248 0
-63 -146 -384 0
-11 146 317 0
54 240 383 0
124 -229 301 0
-242 313 -419 0
-12 312 -426 0
241 366 -382 0
77 131 -445 0
-136 -270 369 0
-198 217 350 0
-5 -51 383 0
9 67 86 0
-164 -315 -483 0
383 -433 473 0
78 -417 -461 0
201 315 -451 0
-86 136 174 0
140 -272 289 0
-259 -317 -394 0
83 -85 135 0
-298 348 432 0
-157 -179 458 0
-94 -223 451 0
-87 185 404 0
-226 -238 303 0
146 -216 -237 0
298 304 -450 0
190 216 390 0
43 -175 343 0
-4 337 -485 0
-89 385 -473 0
-261 -462 483 0
143 363 -473 0
19 234 427 0
-120 -248 -268 0
98 -178 417 0
143 -185 -466 0
31 -245 -317 0
68 -130 180 0
-86 -126 -255 0
22 -134 -266 0
-441 -473 483 0
165 -298 -495 0
-105 241 -429 0
57 -83 180 0
-86 -296 494 0
64 -69 353 0
59 136 -301 0
-161 -195 241 0
-231 244 -331 0
163 -209 259 0
-70 179 208 0
-318 428 436 0
-145 -220 406 0
107 241 281 0
-134 -175 -316 0
-39 157 234 0
105 327 -420 0
177 -248 370 0
162 229 231 0
-55 194 314 0
-24 -115 149 0
8 139 -206 0
10 -30 274 0
99 -283 -312 0
47 127 453 0
197 280 -479 0
165 -363 -393 0
170 202 -242 0
-23 263 -382 0
-11 -169 -356 0
142 -291 -374 0
-68 103 435 0
65 -235 -275 0
-199 -289 -383 0
-192 195 -389 0
-32 -268 408 0
235 -253 291 0
7 82 401 0
-102 -265 355 0
261 391 434 0
23 83 169 0
76 239 -301 0
-188 209 483 0
18 146 347 0
-127 128 143 0
-294 476 -496 0
-85 311 458 0
65 87 -338 0
38 -135 -400 0
151 -304 354 0
-6 -203 471 0
-234 396 -419 0
48 159 -349 0
24 -257 404 0
198 261 -472 0
168 214 306 0
33 46 -88 0
-48 -218 332 0
102 173 -218 0
52 163 -277 0
123 -307 387 0
152 211 -445 0
-32 -217 469 0
-42 -93 328 0
160 -466 -471 0
20 -282 -471 0
-215 -351 -372 0
196 -337 483 0
-230 468 488 0
-11 217 -247 0
142 -269 424 0
-135 266 -270 0
-310 336 -367 0
-102 178 -492 0
165 230 485 0
-10 380 -400 0
-201 399 -409 0
298 -321 -373 0
12 74 -394 0
-134 -458 486 0
-18 -138 207 0
-27 74 293 0
53 -80 191 0
26 -261 -407 0
-28 68 248 0
58 -138 -180 0
-25 -140 244 0
11 77 -95 0
105 254 -486 0
-337 -345 407 0
25 -190 -367 0
103 285 -476 0
56 -61 -77 0
-59 218 456 0
-8 -217 -393 0
45 -75 -107 0
178 -286 -475 0
9 425 -480 0
233 309 -492 0
-8 -195 352 0
114 391 -486 0
-25 62 89 0
34 65 179 0
-36 184 -442 0
-89 422 500 0
-132 -185 436 0
48 -366 384 0
-158 -262 449 0
-201 -307 356 0
345 414 -466 0
-130 326 447 0
-171 -233 474 0
177 291 491 0
81 101 -180 0
221 -262 273 0
121 244 464 0
73 90 137 0
-157 -180 266 0
-247 288 -359 0
-266 -323 -467 0
-168 216 265 0
23 -228 -249 0
-5 398 -461 0
97 330 -335 0
-60 -301 -448 0
98 302 314 0
24 41 497 0
159 -271 -365 0
145 -220 -434 0
316 343 -408 0
-123 -290 291 0
97 -235 -237 0
197 226 472 0
-76 79 173 0
-79 -418 455 0
-12 -77 -80 0
189 -192 345 0
206 243 -325 0
-48 -384 388 0
79 -370 -441 0
233 -279 -395 0
251 -404 485 0
348 -353 -471 0
78 256 -337 0
-115 275 -296 0
-26 -405 -436 0
22 432 456 0
30 -45 410 0
329 401 -407 0
-19 108 -362 0
58 -139 -141 0
-40 -398 402 0
371 444 -496 0
252 -430 465 0
-225 -427 491 0
-24 105 391 0
53 81 -329 0
-162 196 -207 0
28 -204 -247 0
86 -250 387 0
133 -209 478 0
-134 420 432 0
28 -75 -221 0
-91 -269 -301 0
73 -98 371 0
-52 173 338 0
58 256 278 0
47 -58 -161 0
-61 -355 456 0
-120 307 -329 0
22 -131 -409 0
-120 276 446 0
65 437 448 0
216 -301 -449 0
-28 -136 -331 0
-115 279 440 0
212 -429 -458 0
146 261 323 0
-378 426 454 0
6 30 490 0
25 237 -431 0
145 -415 -478 0
85 312 -381 0
-228 247 327 0
-99 114 359 0
-178 -266 -413 0
120 -152 452 0
-49 -88 -317 0
232 314 -412 0
258 338 -373 0
-76 381 433 0
374 -390 -484 0
46 -356 -364 0
-174 243 -245 0
62 -151 -440 0
-47 -214 334 0
-153 171 -217 0
-257 297 -486 0
130 153 -178 0
-259 348 -397 0
142 -200 298 0
-193 -370 399 0
-24 162 -308 0
61 -103 109 0
33 -121 -280 0
155 -437 -487 0
-74 -144 -377 0
99 179 365 0
-179 -452 -466 0
-37 -264 -340 0
-402 -409 -478 0
32 -253 -304 0
-30 93 440 0
-58 -223 263 0
-274 -396 426 0
-59 267 494 0
90 240 -480 0
-35 -72 -432 0
181 -304 350 0
-1 -89 -186 0
-64 221 424 0
329 -344 363 0
214 -257 382 0
261 -467 -484 0
-65 -285 -309 0
-181 -187 210 0
-60 -469 497 0
12 55 -109 0
-64 -116 378 0
-154 284 -318 0
-24 -27 40 0
-102 222 490 0
-87 -324 444 0
85 -158 -455 0
76 373 -420 0
-147 305 -362 0
89 -196 -439 0
-347 429 470 0
181 -194 269 0
79 -187 -282 0
-243 -272 -301 0
-128 -302 -465 0
101 -201 383 0
-25 -54 367 0
-11 -116 -197 0
-80 242 -390 0
209 334 479 0
-164 165 -203 0
-307 440 -457 0
140 428 448 0
146 -182 458 0
268 302 393 0
-137 -239 -483 0
191 -284 299 0
155 -305 -383 0
37 229 -276 0
-305 349 -474 0
20 273 415 0
236 -259 376 0
179 417 498 0
152 356 488 0
-89 118 142 0
65 -80 462 0
-124 -361 399 0
-139 445 -472 0
-163 367 481 0
88 -177 179 0
-121 -284 419 0
62 177 -296 0
168 209 -263 0
-79 -325 401 0
-115 335 -485 0
70 -259 481 0
-17 275 -395 0
98 -226 337 0
-4 -192 275 0
-247 -273 413 0
-214 326 -438 0
-120 162 466 0
7 204 340 0
77 105 -413 0
111 -178 -405 0
-254 -328 -391 0
43 -178 336 0
187 -225 -249 0
-110 -284 -297 0
-139 -482 486 0
114 -286 384 0
-114 267 -287 0
146 -349 -494 0
-141 -399 -488 0
-149 -235 476 0
179 -207 420 0
-33 61 256 0
8 -294 433 0
63 192 409 0
-343 -421 -432 0
-7 41 131 0
105 -211 -287 0
-36 -391 -460 0
80 -141 -437 0
-193 -261 -417 0
-344 448 -486 0
267 -279 315 0
-27 115 -287 0
-415 -434 -456 0
-39 86 -119 0
-245 386 426 0
215 -299 -493 0
-105 -181 266 0
-167 377 -425 0
-154 378 -397 0
253 350 -370 0
8 -242 -300 0
-379 458 -471 0
99 -234 -341 0
-261 -389 414 0
69 73 308 0
66 -136 -292 0
134 139 268 0
-43 285 359 0
-96 -149 450 0
72 -257 365 0
118 239 -385 0
58 -162 374 0
14 347 -446 0
157 -326 459 0
-211 415 -484 0
12 305 -460 0
66 -391 482 0
-60 -472 -475 0
-19 -108 -219 0
15 -96 442 0
95 -404 -436 0
258 280 484 0
73 -278 344 0
-375 -415 418 0
110 -291 -334 0
107 -117 -466 0
268 -352 -379 0
-224 -347 383 0
72 430 -478 0
165 -205 -337 0
-349 -363 -388 0
348 -402 465 0
-42 78 202 0
-58 248 -414 0
-55 324 334 0
16 19 -146 0
-27 -302 345 0
136 -150 -463 0
31 427 441 0
213 -230 389 0
146 262 281 0
143 281 438 0
-145 362 -413 0
63 -170 -379 0
112 -118 -295 0
49 -125 290 0
-101 356 500 0
74 153 224 0
256 -400 -444 0
-308 368 -500 0
172 -222 275 0
-49 223 281 0
-68 -336 436 0
13 266 -407 0
101 -195 -436 0
25 288 -377 0
-80 -182 -344 0
13 -20 -359 0
290 311 -377 0
55 -190 -384 0
-44 -393 485 0
189 213 350 0
-58 398 452 0
38 -399 -436 0
9 195 249 0
-150 -318 414 0
76 -283 -454 0
-124 -343 366 0
-49 204 -378 0
103 -208 442 0
2 138 -439 0
-77 114 -426 0
20 177 -244 0
238 287 373 0
-76 481 485 0
-17 -156 -280 0
-174 237 -469 0
74 207 270 0
-66 377 428 0
-301 371 446 0
4 180 -442 0
-39 -177 -286 0
-134 -156 319 0
-32 210 -257 0
-97 -110 382 0
80 156 449 0
-442 466 -478 0
-51 -310 431 0
5 -251 401 0
-153 157 255 0
197 -212 326 0
100 365 -366 0
233 -299 467 0
-168 254 457 0
179 282 309 0
31 148 431 0
-152 -234 -461 0
-22 -164 -402 0
194 -207 -279 0
-103 -113 -492 0
334 438 -493 0
-131 -259 391 0
-157 -275 354 0
137 159 -493 0
-209 222 -295 0
-63 363 472 0
160 -161 448 0
340 -465 -472 0
111 404 442 0
-36 -63 -261 0
-337 -360 370 0
-250 253 -358 0
-94 -337 420 0
-124 257 -382 0
85 -319 428 0
18 236 442 0
-51 144 202 0
50 210 256 0
116 139 -257 0
86 220 -375 0
-8 -40 387 0
200 -352 434 0
-220 293 -328 0
262 299 -406 0
-1 -26 -156 0
-103 -332 451 0
94 262 -483 0
46 -254 -369 0
-73 -292 457 0
-6 180 -199 0
-17 224 -258 0
-113 397 437 0
-3 -299 331 0
-113 260 432 0
-28 256 439 0
255 324 391 0
115 282 -406 0
-283 311 410 0
-140 148 -260 0
207 -225 -336 0
64 -280 -359 0
-27 -41 -326 0
-27 87 483 0
262 -307 -453 0
-101 248 330 0
88 150 -423 0
267 423 -445 0
-58 224 -437 0
179 285 315 0
57 160 -493 0
-42 -96 -98 0
460 -468 -483 0
-221 251 -368 0
-258 -337 464 0
-59 -114 230 0
15 -392 -417 0
-55 -278 313 0
-285 -320 353 0
-348 439 458 0
258 -370 393 0
198 466 487 0
-39 -44 194 0
-117 210 -257 0
-124 -160 261 0
235 -310 422 0
43 200 376 0
123 -197 -387 0
-12 -189 -208 0
107 -315 -434 0
13 421 444 0
-105 193 -318 0
168 257 292 0
-43 -60 454 0
-5 120 360 0
64 108 -297 0
-70 78 468 0
-127 189 256 0
-134 -209 -320 0
43 164 260 0
156 168 484 0
-401 -423 497 0
-66 165 -281 0
-96 344 -359 0
-69 -94 -249 0
-326 -424 -432 0
-124 134 -366 0
220 -259 -499 0
84 393 473 0
-169 409 500 0
-85 -448 478 0
-111 191 -265 0
176 408 444 0
93 -115 445 0
285 -449 456 0
-188 -335 -460 0
106 -261 308 0
-318 384 -397 0
233 -263 345 0
-330 -391 450 0
-419 -468 -488 0
49 229 -361 0
-22 143 -348 0
253 -351 467 0
157 -312 376 0
63 -189 343 0
-14 160 361 0
-58 192 -405 0
266 -308 -397 0
329 -389 434 0
-66 -264 345 0
-212 239 -322 0
-2 105 186 0
-71 -119 423 0
-78 -327 -356 0
-95 -172 267 0
183 -275 473 0
-32 386 -442 0
-298 -320 327 0
-164 421 430 0
5 223 367 0
231 374 -471 0
106 232 473 0
74 -200 -494 0
101 279 -411 0
79 -259 -435 0
41 -104 -167 0
-175 400 -428 0
-382 449 472 0
141 -189 318 0
39 242 366 0
-271 -283 -476 0
271 -283 -324 0
275 -415 420 0
-52 223 481 0
9 -28 211 0
-90 100 456 0
-303 418 -478 0
256 376 488 0
76 144 150 0
-42 -149 377 0
37 -64 -446 0
-120 -234 329 0
-175 299 395 0
-47 -118 142 0
152 387 -465 0
-9 86 -490 0
61 262 -293 0
23 118 -264 0
241 259 -378 0
18 -215 330 0
275 -422 -446 0
117 -419 436 0
-25 39 -214 0
29 236 403 0
116 -233 360 0
260 -426 -438 0
75 -393 -479 0
114 -118 397 0
178 360 -450 0
370 458 464 0
96 -244 -420 0
14 278 -430 0
45 196 -400 0
100 142 333 0
116 210 -394 0
-39 51 -101 0
-115 -310 482 0
218 -456 -496 0
93 266 -288 0
-19 -257 -409 0
33 -307 358 0
-12 -116 438 0
44 77 97 0
-15 36 -387 0
-34 443 469 0
-47 -246 -478 0
47 -177 488 0
221 276 306 0
58 -284 330 0
257 277 480 0
-216 266 -429 0
-57 187 215 0
-170 252 470 0
-56 410 424 0
-119 -123 280 0
33 -107 416 0
10 177 -420 0
-349 -399 472 0
-198 395 480 0
-87 -202 -415 0
92 -175 -203 0
-294 -366 -500 0
-62 -68 97 0
115 292 486 0
50 58 -117 0
-163 349 -447 0
20 -134 -293 0
-89 132 -222 0
-117 -220 -307 0
-284 -447 -499 0
59 100 331 0
-272 322 -462 0
19 -56 -418 0
155 -413 -442 0
199 -219 378 0
-241 -255 411 0
-28 -301 443 0
234 -279 -380 0
-57 74 -445 0
-265 -348 -375 0
-295 -305 -485 0
-383 -408 455 0
162 429 467 0
-181 -483 -494 0
31 -126 183 0
-305 -342 -500 0
214 -319 414 0
16 -92 -477 0
77 -340 -360 0
4 175 275 0
91 -232 -279 0
-271 -358 -362 0
-6 -422 -454 0
-136 312 369 0
31 57 108 0
97 118 -473 0
149 -150 -199 0
415 -448 454 0
-251 -285 -300 0
93 154 -260 0
151 300 -373 0
-55 -166 -314 0
-31 -51 333 0
-251 306 -430 0
1 -109 -180 0
-14 -262 -343 0
-104 187 -335 0
353 -376 -496 0
99 289 448 0
142 290 -441 0
363 -369 -370 0
133 287 -460 0
36 202 226 0
158 -425 -498 0
-206 -346 -411 0
-59 103 -375 0
-168 171 358 0
281 -428 457 0
-141 -186 329 0
77 351 -459 0
141 164 300 0
-147 -314 354 0
-99 -338 461 0
-113 -134 276 0
-126 180 -424 0
376 429 479 0
-305 313 351 0
-112 372 487 0
-283 -331 -333 0
-97 -128 227 0
-183 -200 -381 0
16 -347 476 0
-21 -217 419 0
-93 -249 406 0
147 237 -379 0
193 -220 -456 0
65 364 -445 0
-20 -107 -459 0
-78 -295 -343 0
-66 376 392 0
219 -309 487 0
153 -283 384 0
-14 414 451 0
-81 83 -329 0
163 191 -467 0
-205 298 380 0
-19 -246 438 0
233 359 457 0
-79 90 -219 0
156 178 485 0
138 365 460 0
35 215 -379 0
-28 83 147 0
-92 215 303 0
78 -149 -384 0
281 369 -378 0
397 -407 437 0
-184 -323 345 0
96 -108 -230 0
-52 214 222 0
-105 -108 243 0
-293 437 492 0
52 -127 483 0
-140 274 466 0
-116 436 483 0
-157 227 -467 0
-349 -432 440 0
45 210 -378 0
258 -453 466 0
-59 -417 -452 0
-268 -273 -477 0
-149 -196 251 0
-19 -155 404 0
32 49 -479 0
-106 169 -351 0
-26 197 355 0
63 -100 461 0
-260 294 386 0
62 130 491 0
60 -195 -427 0
-68 -110 471 0
59 -257 -493 0
-291 425 -444 0
-10 457 -467 0
64 280 -487 0
93 -224 384 0
101 -178 230 0
140 232 -362 0
-175 -397 419 0
-161 359 -473 0
22 -338 -463 0
29 -135 306 0
273 -333 341 0
-439 454 -477 0
-29 102 -493 0
146 178 309 0
-10 -54 -223 0
-119 -318 467 0
91 234 -299 0
28 84 143 0
-49 139 -272 0
108 -372 473 0
-17 -273 365 0
-61 -297 316 0
332 368 464 0
-221 -309 -323 0
-39 -98 -364 0
-89 -396 -458 0
137 202 -326 0
106 113 -278 0
28 -51 -167 0
-41 267 -405 0
-19 -248 -350 0
-42 167 387 0
145 -324 371 0
-284 -356 390 0
35 -98 -337 0
-250 324 351 0
123 -174 413 0
133 464 -498 0
-56 117 -450 0
-180 231 434 0
-47 212 230 0
-68 -325 455 0
62 -290 487 0
1 114 -431 0
23 62 415 0
78 232 -444 0
320 376 -481 0
98 244 405 0
-176 254 -465 0
346 365 411 0
172 202 406 0
64 -104 -263 0
16 -98 -400 0
-88 247 389 0
132 -344 440 0
8 104 -448 0
-341 401 -425 0
108 111 186 0
-123 370 -413 0
-278 280 351 0
-111 -157 344 0
-226 -261 399 0
197 -463 499 0
100 -221 498 0
305 432 444 0
313 384 491 0
26 -64 326 0
-92 -206 442 0
-240 -316 445 0
2 95 322 0
-326 406 -453 0
-48 -249 -301 0
189 -313 -422 0
-26 -385 -393 0
47 267 -291 0
-109 -209 237 0
-59 -181 -240 0
-325 -431 -498 0
-39 86 -437 0
-282 -309 443 0
-271 315 430 0
-159 382 -433 0
18 -146 376 0
369 375 405 0
220 224 399 0
-90 250 -392 0
303 368 483 0
8 -45 -306 0
-328 -366 -462 0
83 416 452 0
110 120 -348 0
-186 441 468 0
-21 376 -441 0
-9 15 407 0
8 -164 -322 0
-126 -182 429 0
-20 393 -415 0
167 192 340 0
186 236 346 0
83 -115 -404 0
-86 171 -334 0
-95 -321 463 0
197 310 -387 0
22 -123 248 0
-129 204 382 0
126 -135 228 0
265 297 369 0
71 -317 357 0
-136 154 300 0
-122 410 467 0
-32 -101 -325 0
351 -392 -448 0
97 -183 -473 0
199 -301 339 0
17 46 489 0
396 -441 -445 0
-232 -362 -377 0
-121 -335 500 0
-218 -256 -313 0
61 283 -315 0
-34 -215 -395 0
-101 214 -473 0
225 242 425 0
17 72 -314 0
-4 -61 -106 0
346 -449 486 0
-29 -95 -456 0
-225 -409 460 0
-73 -297 -298 0
58 277 400 0
34 78 -128 0
-95 -482 496 0
133 -262 409 0
-122 144 -156 0
-217 -310 -314 0
-115 279 -301 0
102 289 376 0
202 258 -454 0
-232 238 339 0
27 154 -175 0
393 -468 473 0
-77 249 -373 0
-51 152 -170 0
-167 417 430 0
414 -415 470 0
88 447 455 0
8 -14 -425 0
-305 -316 487 0
144 301 -409 0
175 -212 -433 0
-22 247 -486 0
12 -14 -354 0
-29 -365 406 0
271 292 373 0
171 182 -210 0
-295 -466 490 0
3 34 -59 0
234 473 485 0
61 -396 437 0
186 -418 -495 0
29 68 281 0
-44 117 -303 0
-229 -367 472 0
23 -75 -348 0
67 78 416 0
-16 -126 399 0
-62 -165 174 0
-47 153 222 0
118 474 -496 0
-163 206 329 0
76 77 108 0
-309 -310 372 0
107 -116 161 0
-206 289 -346 0
53 265 312 0
-144 399 -408 0
-325 382 430 0
43 -86 -484 0
-235 348 -399 0
-81 359 390 0
330 -454 475 0
358 -407 438 0
102 288 471 0
345 423 -480 0
47 228 364 0
208 254 378 0
111 -158 302 0
-198 -420 439 0
-94 339 -400 0
-308 393 498 0
-130 171 180 0
-2 396 -411 0
-41 -349 -462 0
144 279 343 0
-188 258 -271 0
-86 161 430 0
-102 179 -192 0
278 338 -462 0
29 -267 277 0
-176 -294 400 0
36 418 454 0
30 -32 228 0
-252 442 -486 0
-350 399 -464 0
89 271 -499 0
18 -242 -454 0
-144 392 -481 0
-37 114 180 0
61 -203 -304 0
-52 -264 425 0
301 -303 -386 0
-6 -17 104 0
-107 -305 -348 0
-56 -103 278 0
57 90 -299 0
-17 -100 -410 0
-97 -266 361 0
-96 -165 -488 0
36 -207 -327 0
48 414 -495 0
-93 -442 -495 0
-181 235 -265 0
57 159 -331 0
76 79 391 0
63 425 -430 0
-85 115 290 0
-324 -439 473 0
-183 -270 -355 0
116 340 -468 0
-23 95 148 0
34 121 -307 0
179 212 383 0
257 -383 -456 0
135 -157 250 0
-221 -391 467 0
-231 -432 488 0
-119 309 -345 0
-49 228 275 0
164 -267 -376 0
-291 453 470 0
303 307 -438 0
-10 66 87 0
-232 -294 -486 0
-161 414 468 0
339 -384 -430 0
431 470 -472 0
15 468 480 0
-36 -169 -358 0
-115 -371 434 0
101 441 -487 0
-148 301 379 0
-206 -371 446 0
-25 155 204 0
-162 -269 -301 0
-157 -319 367 0
-237 430 463 0
-90 -238 387 0
-175 280 430 0
-251 -389 -491 0
-89 304 397 0
98 206 -431 0
204 -454 -493 0
63 302 -381 0
-20 -225 -449 0
5 -286 400 0
-19 333 -491 0
212 -262 -426 0
117 -312 370 0
-62 -196 -360 0
71 -356 450 0
-92 252 -493 0
-44 -72 -136 0
175 -188 -360 0
52 -356 -365 0
125 302 -387 0
-51 -379 467 0
-18 46 197 0
264 306 350 0
-104 -282 348 0
11 -204 -234 0
-168 -367 -494 0
241 -375 462 0
-7 151 -298 0
154 -213 -412 0
301 308 -463 0
-67 -111 -466 0
108 -371 -440 0
64 166 -331 0
71 -273 371 0
-135 348 420 0
-87 412 497 0
50 -93 -299 0
8 -219 484 0
214 316 -439 0
50 -124 231 0
54 126 482 0
-67 168 449 0
57 331 492 0
22 -403 428 0
-101 309 436 0
49 233 352 0
231 -283 -291 0
59 304 -395 0
-312 383 -417 0
-221 -376 -415 0
-212 -283 492 0
145 259 333 0
283 365 -385 0
-119 168 -312 0
62 116 247 0
-32 218 -422 0
357 -369 -389 0
-392 -422 453 0
37 90 -283 0
303 359 -414 0
-233 351 -416 0
-373 386 495 0
-77 -301 -334 0
98 120 -403 0
41 -215 -241 0
-59 -373 -443 0
8 176 -276 0
-99 192 281 0
112 -275 303 0
117 -240 -315 0
-106 -197 437 0
63 327 -484 0
-286 301 -367 0
-284 -364 -457 0
-149 477 497 0
19 212 230 0
33 191 448 0
148 -315 -401 0
183 -210 450 0
12 -99 489 0
-83 282 -290 0
177 248 -256 0
224 387 487 0
-128 -351 -406 0
-231 379 -480 0
-241 -315 -389 0
8 -110 -145 0
197 320 489 0
-109 -121 193 0
55 -141 488 0
55 57 186 0
2 -216 -395 0
136 459 -489 0
431 449 458 0
44 -428 474 0
-308 -352 412 0
85 367 -386 0
51 234 -481 0
37 -223 397 0
-163 244 -351 0
29 -292 -334 0
-166 214 423 0
-74 -394 -407 0
85 -186 344 0
-225 -288 -493 0
265 306 436 0
-189 297 -493 0
162 313 -476 0
-36 -198 403 0
-27 43 -284 0
233 -249 292 0
-205 365 375 0
60 -353 461 0
79 451 490 0
20 -47 -163 0
116 -185 310 0
12 137 -172 0
-97 333 386 0
260 268 424 0
-194 225 -320 0
-38 -179 -243 0
39 -237 -306 0
-125 -143 474 0
24 -253 -359 0
-275 -377 -473 0
140 150 -365 0
180 -203 313 0
-98 -393 -439 0
-140 323 411 0
-1 -336 449 0
48 -278 -290 0
-67 -124 -227 0
-74 321 416 0
139 -319 -373 0
-81 113 -312 0
351 361 -371 0
146 202 -409 0
235 -306 -419 0
251 309 -348 0
238 373 -420 0
-15 -203 347 0
-209 441 489 0
107 174 -189 0
173 214 294 0
222 -228 -434 0
228 249 251 0
159 426 436 0
83 168 330 0
424 465 -477 0
-178 334 -412 0
12 368 449 0
286 -468 -474 0
-18 -211 -442 0
41 -357 -379 0
-97 155 -313 0
104 -185 -304 0
-328 -342 460 0
111 350 -390 0
-143 430 466 0
270 296 366 0
110 347 -429 0
192 -229 -468 0
106 191 -326 0
166 -378 435 0
-199 251 460 0
208 -437 491 0
25 -182 401 0
42 114 -388 0
-258 275 -466 0
128 402 -436 0
218 380 446 0
