c description: Random 3-CNF over 500 variables and 2129 clauses
c generator: CNFgen (0.9.6)
c copyright: (C) 2012-2026 Massimo Lauria <massimo.lauria@uniroma1.it>
c url: https://massimolauria.net/cnfgen
c command line: cnfgen randkcnf 3 500 2129
c
p cnf 500 2129
-168 -169 -192 0
78 142 449 0
59 -451 454 0
136 162 246 0
-235 -452 -476 0
178 400 500 0
-138 197 -473 0
-84 198 -491 0
-40 274 -450 0
-358 -437 482 0
8 -56 -196 0
-25 -165 439 0
-192 -269 -462 0
-190 -327 -457 0
13 106 -455 0
99 225 233 0
19 32 -427 0
237 -257 -375 0
376 419 -439 0
103 -334 400 0
30 -201 -223 0
-200 218 441 0
-219 -312 -403 0
-65 -164 219 0
74 -204 337 0
107 -167 252 0
134 248 473 0
-50 -197 327 0
-1 -307 371 0
146 -174 -202 0
-92 -219 -386 0
-85 -158 -225 0
-139 336 438 0
-109 -232 319 0
-52 202 -231 0
-139 302 -355 0
54 -220 472 0
83 282 350 0
73 172 -341 0
-24 -118 -313 0
-44 67 -258 0
-240 -330 495 0
-112 -367 401 0
-7 84 410 0
87 -112 354 0
146 -232 -391 0
16 213 -320 0
112 327 458 0
-35 292 475 0
106 129 -199 0
310 -354 423 0
-14 -38 411 0
-36 363 474 0
-78 -386 406 0
72 192 -485 0
20 335 343 0
-117 -144 321 0
41 -175 444 0
-16 44 310 0
50 -226 273 0
97 333 433 0
321 418 487 0
81 -288 -345 0
-5 -7 -339 0
-190 -217 -369 0
-363 -410 498 0
-118 244 460 0
-281 410 499 0
43 322 -337 0
76 92 131 0
-15 -255 301 0
34 36 -289 0
-43 -214 408 0
44 -241 -450 0
151 179 390 0
74 -85 -400 0
50 210 -346 0
-56 132 -365 0
107 232 485 0
336 359 -483 0
-178 -291 345 0
79 -205 -310 0
-230 -330 385 0
-392 434 442 0
-86 226 -273 0
111 -147 -444 0
25 118 475 0
324 -373 -491 0
-25 35 -313 0
-79 146 -396 0
45 -299 -349 0
-256 -276 -341 0
262 -402 -476 0
10 220 -390 0
-184 209 329 0
-81 157 438 0
-64 416 494 0
167 -183 486 0
-251 303 -366 0
9 231 -441 0
108 176 -440 0
-45 -261 273 0
128 189 -323 0
345 -379 -453 0
-10 308 443 0
111 195 231 0
-3 54 192 0
-52 -223 347 0
242 255 -355 0
-47 -84 -343 0
17 -147 -395 0
10 92 -319 0
6 -175 -441 0
-18 -280 -407 0
243 253 430 0
-155 -157 -395 0
141 -317 354 0
-264 301 415 0
-47 -111 -295 0
-3 135 -415 0
313 -330 -346 0
-43 69 354 0
-88 210 -270 0
-150 198 -316 0
-94 257 -433 0
-100 -154 208 0
-165 -273 278 0
179 218 230 0
-168 -178 404 0
172 223 -431 0
333 -337 -387 0
58 -251 321 0
-1 388 -494 0
35 -164 245 0
-100 -359 -360 0
133 -169 -346 0
-132 -390 476 0
-49 -81 -374 0
-48 380 425 0
-118 314 423 0
287 -365 -464 0
-116 -145 -302 0
144 -308 -499 0
24 439 482 0
47 -145 -156 0
194 232 427 0
55 -111 208 0
-41 381 399 0
294 472 -476 0
42 126 -178 0
60 -128 246 0
275 -300 364 0
15 -173 377 0
29 138 256 0
17 -327 -379 0
95 105 424 0
-214 -240 327 0
-283 348 -448 0
-272 -275 -348 0
-209 221 -222 0
-273 420 459 0
-25 -115 -172 0
14 -369 -480 0
-57 175 303 0
-146 318 492 0
44 365 -403 0
-51 -74 -84 0
-111 300 -383 0
-382 -406 453 0
-281 409 -451 0
-95 450 479 0
-179 234 304 0
-36 140 -315 0
-114 214 479 0
393 405 475 0
29 194 -395 0
-2 -302 393 0
-177 -321 415 0
-102 -165 246 0
70 -109 428 0
-26 234 249 0
44 -76 139 0
-115 206 301 0
84 -90 210 0
103 -291 -437 0
-91 -126 370 0
198 -265 -430 0
-133 228 -470 0
71 302 -476 0
-35 -142 -367 0
-303 429 485 0
-99 297 426 0
249 361 -471 0
-193 407 -458 0
-276 398 -441 0
-8 -24 -404 0
194 -395 496 0
102 126 319 0
-10 31 -150 0
-34 -67 183 0
-13 244 -406 0
-152 -184 -325 0
-5 -94 303 0
-90 105 -329 0
166 -221 332 0
173 -290 -299 0
-221 291 335 0
42 182 -319 0
-161 -243 -496 0
182 -418 -431 0
17 166 344 0
208 401 442 0
452 -454 473 0
-223 301 -401 0
171 302 -369 0
-42 60 -191 0
-100 -312 -488 0
113 -336 487 0
93 202 -314 0
-61 -311 -416 0
-54 -263 -379 0
1 -54 450 0
-314 434 475 0
-127 423 -431 0
57 -94 453 0
-15 156 204 0
-54 -360 -441 0
-145 -150 347 0
-210 314 -354 0
14 131 -360 0
-81 197 -482 0
7 -146 -486 0
151 272 -284 0
-27 124 438 0
92 360 398 0
244 396 -414 0
-129 303 -373 0
-301 427 451 0
-15 -197 -230 0
-296 -366 -476 0
-202 -258 463 0
99 347 480 0
383 -391 -400 0
184 437 475 0
6 -415 -457 0
280 304 -350 0
-127 174 361 0
-134 152 332 0
-248 338 -452 0
8 -91 189 0
254 256 300 0
-114 259 386 0
-7 359 -464 0
49 270 500 0
22 80 456 0
32 154 -362 0
71 232 -235 0
-6 -36 206 0
40 -313 -390 0
13 207 -252 0
-26 176 256 0
213 279 479 0
129 -300 352 0
61 286 -365 0
298 383 -480 0
-117 196 -331 0
140 -186 460 0
-156 448 469 0
188 284 431 0
-152 434 -445 0
250 -273 417 0
169 224 256 0
-103 -293 338 0
61 391 454 0
-101 -351 -376 0
55 250 -267 0
-38 -210 335 0
61 129 347 0
-102 -270 431 0
110 112 -379 0
-105 -309 490 0
-151 222 -321 0
186 276 308 0
-229 -301 435 0
22 -253 383 0
-329 -403 -464 0
-28 -62 76 0
-17 -151 -374 0
95 114 -205 0
397 441 488 0
-52 404 419 0
66 -417 -491 0
-260 -304 487 0
49 89 -222 0
274 276 -305 0
153 -225 -286 0
-248 449 -463 0
35 -451 453 0
-28 86 -362 0
-35 -255 330 0
-121 454 476 0
-71 83 491 0
49 283 -460 0
36 -396 -467 0
-265 332 -433 0
-53 252 279 0
-9 -290 -298 0
-13 -312 457 0
-60 297 367 0
90 -92 209 0
362 369 481 0
253 -304 -393 0
-37 -44 488 0
-305 -412 422 0
-167 228 268 0
11 195 -284 0
100 -233 379 0
-245 305 -369 0
51 -309 -455 0
-50 -122 -359 0
-56 -257 -436 0
32 39 498 0
-3 -44 127 0
-39 175 -275 0
169 212 426 0
64 -256 -446 0
-394 418 491 0
91 169 -486 0
-26 -328 -364 0
-347 -404 440 0
-82 -192 -373 0
13 467 -488 0
131 161 168 0
-94 -426 435 0
223 -308 -337 0
-167 -316 -329 0
-256 -262 -405 0
213 -222 351 0
-199 236 409 0
-109 113 -179 0
-97 149 -493 0
94 228 377 0
325 -390 -436 0
-30 119 -413 0
-59 434 481 0
265 353 437 0
10 126 -205 0
215 -228 352 0
217 258 394 0
-145 -234 -286 0
36 -271 320 0
182 -208 -455 0
69 -92 -189 0
-258 307 -347 0
-67 -347 -469 0
-157 -273 367 0
43 -50 462 0
51 64 280 0
121 -221 -350 0
-73 351 -417 0
-78 100 -194 0
-119 -389 -469 0
-48 -158 -334 0
170 263 320 0
93 120 -331 0
-204 -215 -235 0
-191 241 -389 0
50 -190 308 0
-50 -399 467 0
-18 72 186 0
214 -221 -325 0
301 322 -452 0
-82 -352 -470 0
87 -88 -157 0
71 77 413 0
36 -108 302 0
137 -303 -369 0
-279 -310 -419 0
67 84 496 0
36 -423 -454 0
106 474 -491 0
165 415 425 0
-90 -297 -468 0
-221 -369 383 0
-105 -334 339 0
-25 58 390 0
-14 192 439 0
25 -291 -414 0
-9 -111 -358 0
-3 186 367 0
286 -357 379 0
-243 388 403 0
127 174 -463 0
-111 115 -128 0
275 -292 -302 0
-145 -313 412 0
-22 49 498 0
-171 177 325 0
-129 -148 234 0
227 -303 369 0
-30 85 446 0
54 340 -424 0
139 385 -491 0
186 -399 -486 0
-346 -394 -423 0
56 -67 105 0
135 -206 -411 0
125 209 -334 0
63 150 -422 0
-175 406 412 0
-44 447 461 0
192 -262 493 0
-136 -268 351 0
359 413 -482 0
323 -397 442 0
94 -122 263 0
27 28 -299 0
-27 -144 -177 0
-376 -390 419 0
173 193 335 0
31 112 -198 0
-200 243 -297 0
-17 -321 -439 0
286 339 -426 0
295 384 458 0
35 -71 82 0
-109 395 -411 0
-155 187 330 0
6 259 374 0
96 -235 -379 0
-188 233 -446 0
35 -110 491 0
8 -413 -479 0
387 404 -419 0
190 221 254 0
80 -417 -418 0
-239 240 -465 0
247 -418 451 0
-48 411 -499 0
-61 333 -485 0
49 236 -257 0
-35 -161 179 0
-233 -393 -400 0
82 -159 -402 0
122 315 342 0
176 -273 364 0
95 185 -429 0
90 97 437 0
-22 -154 431 0
-154 288 316 0
76 -133 278 0
-56 -94 -101 0
-8 445 489 0
231 -403 -459 0
-17 -357 420 0
-26 289 457 0
181 -325 -342 0
-21 -200 289 0
-438 458 -498 0
161 269 376 0
105 -197 -248 0
276 364 393 0
-84 336 -350 0
383 -448 -452 0
102 -152 239 0
78 134 -411 0
221 382 -408 0
104 188 -484 0
-83 147 244 0
73 -168 220 0
369 404 423 0
264 -393 446 0
-273 293 -474 0
-55 -221 -476 0
-215 382 -427 0
-99 157 -451 0
278 369 373 0
-140 167 -172 0
63 211 -488 0
194 -263 -322 0
56 344 418 0
-368 -446 -460 0
287 -311 -412 0
-52 -101 453 0
-26 -413 -478 0
61 162 -393 0
310 392 404 0
372 429 491 0
-115 412 485 0
-130 219 -414 0
268 294 398 0
35 424 430 0
-97 323 437 0
-251 -274 378 0
-295 358 462 0
-422 -425 435 0
161 182 220 0
191 -222 -484 0
-193 -195 382 0
224 -232 476 0
-95 405 -493 0
208 393 452 0
-342 389 -492 0
-55 398 408 0
119 156 186 0
87 165 346 0
-129 -362 -398 0
341 -363 -384 0
35 -126 329 0
-96 353 -446 0
-182 241 -400 0
1 206 245 0
277 -321 -403 0
-153 170 -380 0
63 85 -370 0
231 351 -385 0
280 300 -484 0
-155 -168 -408 0
-140 267 -301 0
59 394 490 0
227 267 367 0
-47 367 424 0
-144 290 -414 0
-205 314 -495 0
130 -354 -392 0
50 356 -413 0
109 171 348 0
53 91 386 0
-265 326 337 0
-148 344 369 0
-58 -122 -457 0
92 98 409 0
44 199 437 0
147 -365 490 0
-208 -367 482 0
-70 230 463 0
85 109 204 0
-52 -106 -457 0
63 132 444 0
-303 322 450 0
-263 442 -448 0
-7 329 398 0
-370 405 -430 0
-36 -134 446 0
44 -247 374 0
-89 -202 391 0
-38 -163 409 0
110 399 -468 0
102 117 262 0
163 186 -199 0
87 -191 426 0
-177 -233 -254 0
78 -274 -308 0
-242 323 -473 0
-9 99 387 0
-164 -325 -419 0
-57 113 241 0
-61 -356 462 0
-1 203 287 0
80 140 316 0
-285 -383 427 0
9 238 -478 0
157 321 348 0
-219 -399 -424 0
38 194 385 0
-20 -33 -123 0
-136 -150 -451 0
-218 -355 -425 0
-252 -255 -426 0
196 221 -484 0
-6 21 -126 0
194 266 453 0
162 -465 493 0
-86 191 473 0
-100 295 -311 0
-1 138 -185 0
163 -228 299 0
115 281 -287 0
-316 -326 389 0
94 172 -198 0
27 -72 -326 0
-355 364 -451 0
-84 322 -468 0
43 -356 -428 0
14 -19 -34 0
-39 -295 425 0
-105 -407 -424 0
89 -91 -353 0
9 46 125 0
-148 464 -496 0
397 -434 499 0
53 418 492 0
-182 -224 310 0
-42 134 172 0
417 -464 -491 0
59 105 470 0
38 179 323 0
-127 -151 -170 0
-14 74 475 0
10 -275 317 0
-111 131 -263 0
272 -312 -380 0
-222 375 -472 0
42 45 -329 0
-199 -318 358 0
-71 -321 -432 0
-64 -114 -447 0
-175 -264 -306 0
292 -468 481 0
-101 252 -349 0
-217 -275 364 0
-172 -311 376 0
177 -185 -452 0
25 372 449 0
-156 -157 -172 0
-121 -159 -447 0
-232 427 -476 0
-77 -123 295 0
63 -83 -228 0
-90 103 203 0
178 207 481 0
95 -149 -365 0
108 -460 493 0
-194 -273 -496 0
331 392 412 0
15 255 317 0
-424 -441 -448 0
-119 200 373 0
14 370 492 0
-8 -26 410 0
-20 340 -413 0
70 305 -460 0
-413 -432 -498 0
217 -220 -445 0
36 57 344 0
269 -314 -494 0
-72 -328 441 0
193 244 -412 0
-95 -292 350 0
-133 271 -410 0
-249 -324 -490 0
148 225 -453 0
-93 267 -382 0
-225 -369 -459 0
153 -163 427 0
274 379 447 0
86 393 -477 0
-236 -313 356 0
36 166 455 0
19 -145 -304 0
50 353 -407 0
117 -328 -425 0
326 -420 488 0
42 51 -346 0
-99 292 359 0
10 -127 368 0
115 158 200 0
135 -160 465 0
435 436 489 0
-41 234 -477 0
161 401 -439 0
17 221 -304 0
-230 328 449 0
90 451 -480 0
-96 -117 -351 0
-133 -404 496 0
-112 250 -278 0
-88 -193 258 0
-25 140 473 0
-141 -324 359 0
-32 45 165 0
114 305 318 0
-94 311 -485 0
-161 295 368 0
105 266 419 0
-21 243 -487 0
16 -221 -484 0
217 -373 426 0
-19 -182 -193 0
203 -379 479 0
-90 -135 -340 0
-42 -230 302 0
87 -151 -422 0
223 -240 267 0
225 -242 -338 0
-34 -129 220 0
-387 -416 -445 0
-367 428 460 0
22 -331 402 0
-112 136 284 0
299 -359 381 0
53 98 -479 0
128 -341 487 0
392 -431 -469 0
-179 -321 336 0
-72 158 365 0
-271 314 -389 0
116 -233 -437 0
-4 239 334 0
-19 358 499 0
-231 256 -294 0
99 330 497 0
-152 -284 385 0
30 -243 -317 0
-183 -238 -399 0
125 420 -476 0
-351 359 371 0
-245 -294 -361 0
-260 -320 -349 0
129 -229 293 0
143 -172 -201 0
103 -367 482 0
-29 -108 -120 0
-116 -219 317 0
-247 -467 -485 0
228 -277 -340 0
-208 -361 478 0
94 118 -268 0
31 199 395 0
-56 140 286 0
208 222 375 0
-173 -379 -455 0
92 -328 -430 0
236 338 -413 0
-44 112 247 0
141 -177 -434 0
285 -299 481 0
118 -186 -339 0
-98 -384 -474 0
172 -261 -393 0
-26 342 436 0
-320 -358 -439 0
-301 -342 438 0
-184 195 -339 0
-350 -462 -481 0
114 173 -428 0
-205 236 242 0
-314 368 394 0
-105 332 375 0
-168 -353 416 0
142 -366 480 0
337 -390 449 0
8 351 405 0
-152 -256 -404 0
-266 413 -495 0
33 -289 290 0
37 272 370 0
-109 -174 379 0
-19 83 -261 0
-56 350 -386 0
-364 372 -477 0
90 -380 491 0
137 -188 -265 0
45 -113 -186 0
95 -152 234 0
-20 378 388 0
-1 -71 85 0
-49 -244 265 0
-199 256 355 0
-249 -304 348 0
-167 -218 -380 0
56 -94 215 0
-206 279 442 0
352 -480 492 0
18 -132 -261 0
40 114 370 0
94 363 408 0
-385 -394 -467 0
110 -195 277 0
92 -189 -290 0
-7 41 152 0
14 318 -391 0
-2 -192 380 0
-149 265 394 0
7 -328 -486 0
-143 -350 488 0
-230 -239 415 0
-289 -419 -426 0
-89 154 448 0
-214 410 441 0
-12 -66 167 0
-41 -124 304 0
99 268 415 0
125 -240 -315 0
-63 -311 429 0
-263 -306 484 0
106 -189 336 0
15 -202 -204 0
-23 149 -294 0
-6 -12 457 0
-142 365 443 0
268 -335 493 0
-107 -114 120 0
-56 84 -483 0
-59 103 265 0
-162 247 331 0
-259 -274 311 0
62 -220 404 0
178 -326 475 0
-3 214 235 0
-7 -483 -491 0
-103 216 -351 0
-121 -204 -464 0
-81 173 208 0
-460 -493 496 0
-13 -82 370 0
-189 309 -442 0
-30 -278 -484 0
247 -377 456 0
37 -100 103 0
-68 -289 359 0
-178 180 247 0
-4 -225 354 0
184 251 458 0
37 54 202 0
237 372 389 0
114 292 356 0
-208 -293 -412 0
132 -161 397 0
185 293 -472 0
77 -307 389 0
140 -272 -361 0
-263 -282 -479 0
42 -63 -208 0
-143 192 -206 0
-37 -407 -493 0
-20 202 -303 0
56 -163 209 0
110 147 259 0
-291 -322 -481 0
23 284 476 0
61 -90 323 0
-36 65 -311 0
-7 136 236 0
6 339 -390 0
96 266 416 0
-334 368 -482 0
160 -254 -324 0
167 267 364 0
-61 -149 242 0
110 -117 460 0
39 183 247 0
115 -151 -433 0
160 379 -482 0
-25 -134 -264 0
59 186 -329 0
-89 -148 -460 0
126 -314 -338 0
-293 381 487 0
22 -233 251 0
-221 -302 -390 0
69 288 458 0
-59 118 224 0
232 288 434 0
-176 -235 -295 0
6 -480 486 0
255 -262 -303 0
31 -462 -482 0
199 -219 -293 0
87 152 -250 0
-101 -279 490 0
-9 20 392 0
-360 -429 447 0
103 333 -475 0
-11 171 308 0
30 -240 320 0
188 322 -402 0
249 -391 -471 0
-32 188 455 0
89 312 -361 0
-98 146 315 0
-158 165 -221 0
64 110 485 0
49 171 320 0
-314 392 474 0
151 341 -439 0
-295 358 385 0
95 -275 379 0
63 126 -321 0
-134 259 479 0
-9 14 105 0
-117 -282 -299 0
213 -268 -336 0
-32 -244 466 0
-141 265 -343 0
-252 293 -430 0
-37 261 -311 0
40 98 -230 0
-40 149 253 0
72 -329 -334 0
207 294 342 0
-271 462 -499 0
-215 425 471 0
-100 117 143 0
186 269 -368 0
58 156 483 0
-11 127 413 0
-198 380 -499 0
74 394 -436 0
324 -347 -356 0
12 205 -480 0
-175 -367 441 0
-220 -342 -356 0
126 -344 444 0
392 407 440 0
191 -194 224 0
-87 330 337 0
-25 329 -394 0
71 -113 -144 0
-67 -356 427 0
-115 -138 345 0
195 -413 455 0
-233 -426 -455 0
-34 69 190 0
5 226 -297 0
258 -350 -399 0
48 307 408 0
-171 281 -453 0
-56 -58 382 0
106 -406 -418 0
57 -292 -350 0
-311 -442 -474 0
-171 -192 -276 0
20 -284 371 0
283 -395 -473 0
-287 -380 -457 0
150 292 436 0
-52 228 451 0
124 358 -424 0
318 356 475 0
199 337 442 0
182 260 -296 0
-371 -441 487 0
-192 -421 489 0
24 168 -330 0
310 -334 -488 0
-145 -171 -334 0
158 268 -472 0
-57 85 -173 0
-58 -241 -451 0
-16 -259 453 0
131 418 459 0
463 465 -492 0
-317 -372 452 0
-52 152 198 0
270 -355 415 0
214 232 365 0
359 421 446 0
19 -21 -401 0
-170 -349 370 0
154 -165 -167 0
-132 -377 -380 0
110 156 219 0
-133 -352 -361 0
18 342 -368 0
47 -162 220 0
236 -262 -447 0
91 126 -380 0
-27 163 -482 0
-478 494 -496 0
-245 284 -488 0
-131 -194 195 0
137 202 -204 0
-95 392 421 0
-185 468 -480 0
-221 -425 434 0
203 311 -451 0
27 -301 376 0
-104 -295 -414 0
-46 -210 281 0
237 -307 345 0
-104 371 413 0
-229 292 320 0
-235 -360 -463 0
-34 -299 313 0
183 -262 -291 0
159 -409 459 0
282 -388 -464 0
-332 457 -458 0
-53 143 -282 0
-39 181 258 0
4 174 -354 0
58 -345 409 0
75 -85 -304 0
-72 247 382 0
154 -161 358 0
-296 -318 -387 0
44 417 423 0
-32 406 -409 0
288 -307 357 0
128 213 463 0
80 136 165 0
26 76 -358 0
27 -277 461 0
-135 161 194 0
-65 354 -472 0
-43 314 -393 0
-157 -298 -421 0
-73 249 303 0
55 -165 287 0
57 -59 -306 0
95 -179 -297 0
-266 -420 494 0
-55 255 360 0
46 309 483 0
261 -279 365 0
-110 -132 -443 0
-129 136 -144 0
-118 -225 340 0
260 329 379 0
134 157 -287 0
-5 74 -328 0
-75 164 224 0
-31 -367 492 0
13 336 -422 0
-106 157 -316 0
32 56 476 0
123 -217 -293 0
35 -198 488 0
279 -436 442 0
190 238 342 0
68 -136 -401 0
-402 417 -464 0
-244 428 -478 0
9 -349 398 0
54 -111 453 0
-115 -117 313 0
20 -144 283 0
-179 243 417 0
318 350 434 0
407 -441 -452 0
-29 119 239 0
-9 192 233 0
88 273 339 0
123 -350 391 0
50 312 -332 0
-71 -186 454 0
-437 443 -465 0
-35 194 -488 0
-129 -131 -392 0
-42 188 -233 0
-121 259 -471 0
5 38 122 0
-302 -343 425 0
-53 -217 -340 0
-195 -203 372 0
-207 255 -461 0
29 -248 295 0
17 230 -284 0
-7 -76 -116 0
43 -316 -451 0
-3 29 179 0
150 179 200 0
-59 321 413 0
126 234 341 0
-245 369 -480 0
343 -363 -405 0
-36 -298 430 0
-13 -115 -120 0
91 -104 422 0
-377 395 -436 0
399 410 442 0
273 380 414 0
-172 439 -473 0
308 -368 489 0
-325 -371 -379 0
268 -275 -351 0
61 85 495 0
276 406 -459 0
-205 -286 -369 0
103 147 -207 0
46 281 360 0
-59 -90 -92 0
182 -301 -411 0
-29 -279 -311 0
270 404 -480 0
42 -279 481 0
-152 155 -479 0
-4 239 340 0
-5 237 -407 0
-113 -164 -348 0
303 328 -467 0
-23 -95 -447 0
-112 -289 402 0
-114 -201 368 0
77 -309 401 0
133 243 459 0
-126 200 436 0
-11 -318 347 0
83 -413 -434 0
-45 -86 178 0
413 -428 -456 0
76 -165 304 0
6 373 422 0
143 -177 -191 0
-287 -419 -468 0
-119 -135 -432 0
-69 306 308 0
-213 -297 317 0
-97 210 -260 0
-115 -180 415 0
-70 222 341 0
-4 256 277 0
198 -249 354 0
-166 -296 -363 0
135 319 358 0
19 37 355 0
-152 -226 263 0
98 -115 -231 0
-245 315 -339 0
54 -187 445 0
61 335 458 0
-145 374 -442 0
-195 321 -407 0
115 309 398 0
-59 -109 -144 0
184 276 287 0
135 -152 455 0
-91 -155 267 0
-86 -291 -337 0
-185 340 -455 0
-84 99 -101 0
176 -259 -386 0
133 356 -402 0
-84 100 476 0
19 231 -461 0
170 -242 -256 0
-3 97 385 0
45 150 333 0
-145 204 405 0
225 241 -391 0
-24 308 -415 0
-279 342 -469 0
-225 -406 -418 0
-173 -228 -363 0
-13 55 -207 0
-188 -216 -261 0
202 346 451 0
-230 -335 362 0
-101 -120 -421 0
-9 143 -291 0
-89 431 475 0
85 219 -412 0
-23 -53 -118 0
-157 -180 -483 0
31 37 -172 0
14 109 341 0
46 405 -487 0
-7 103 300 0
321 394 452 0
76 -254 291 0
-200 -210 -297 0
177 187 -344 0
-20 -395 -472 0
-344 -377 447 0
-68 369 427 0
202 231 -330 0
22 263 -348 0
-194 -265 -448 0
-38 -85 -206 0
124 346 -429 0
42 259 403 0
-108 230 -466 0
113 170 252 0
-94 -133 -176 0
-94 -144 201 0
-188 285 432 0
101 334 -396 0
-8 -129 333 0
1 51 -452 0
-102 -139 -297 0
-26 -277 -399 0
395 489 -496 0
28 -31 -227 0
297 -436 -448 0
4 121 155 0
212 -239 253 0
-83 210 -340 0
167 -363 465 0
-88 229 -451 0
-116 -239 -256 0
152 -412 -442 0
-24 -269 306 0
129 -257 -472 0
-202 267 -452 0
-129 351 439 0
-275 294 -451 0
-51 348 400 0
37 -192 -323 0
-36 -196 319 0
-22 -86 341 0
-63 66 -77 0
271 -340 -436 0
88 -231 -307 0
-133 -416 -431 0
-327 -440 484 0
32 246 -460 0
128 -202 362 0
-19 -173 199 0
32 -75 -432 0
-46 143 -320 0
-2 109 -302 0
-30 -186 -283 0
53 73 385 0
199 254 345 0
-99 -447 492 0
-64 286 463 0
227 -358 482 0
-155 -382 -459 0
-12 -25 -477 0
-93 -109 -378 0
-296 414 -498 0
16 -420 -481 0
-123 161 274 0
61 -371 -463 0
44 -301 358 0
9 427 -443 0
223 -399 402 0
-37 213 467 0
180 267 -359 0
-338 350 420 0
-146 170 443 0
6 99 400 0
-104 -140 -374 0
-47 76 -212 0
214 -342 -430 0
105 423 451 0
323 384 470 0
-3 49 474 0
72 -175 384 0
258 281 482 0
235 -342 360 0
-19 108 462 0
67 396 407 0
81 201 -494 0
-280 444 -486 0
59 -113 421 0
-164 297 376 0
-20 -68 -74 0
261 342 349 0
31 -282 338 0
-18 -354 -358 0
287 407 -438 0
9 240 -244 0
50 65 457 0
-182 -287 -299 0
-60 303 394 0
168 -318 -480 0
-35 382 -385 0
-60 -234 -281 0
212 260 -375 0
194 -208 340 0
197 -199 -359 0
247 399 -478 0
165 354 -382 0
-248 -307 -418 0
148 -281 314 0
-13 53 -228 0
-9 80 109 0
-197 220 455 0
118 301 432 0
29 267 419 0
-176 231 -375 0
-153 -373 451 0
27 208 -306 0
397 -452 -482 0
391 -444 -482 0
-60 -314 366 0
-228 -242 426 0
-59 -209 428 0
3 -48 319 0
-242 -426 -455 0
73 135 -383 0
-75 296 -430 0
7 334 -403 0
371 -398 468 0
-325 423 -448 0
92 177 406 0
-55 321 -413 0
-235 303 -477 0
-75 169 -262 0
-107 249 264 0
-264 -288 -488 0
-125 -187 221 0
113 -262 -312 0
57 -344 -499 0
-22 253 412 0
-158 -317 -329 0
18 210 -343 0
-27 -291 -409 0
-107 447 -450 0
-62 154 288 0
165 -293 388 0
-13 343 -479 0
-38 -214 440 0
19 -60 479 0
-92 293 500 0
-361 -368 392 0
33 46 -76 0
-1 -34 -169 0
255 -382 -401 0
-21 31 272 0
266 330 -494 0
-141 -193 219 0
-60 -229 -242 0
66 290 -371 0
277 -335 -471 0
-87 334 -436 0
-45 92 259 0
-2 -419 -452 0
-12 -393 -400 0
-432 489 -491 0
-151 -331 -401 0
-133 -335 475 0
-293 -354 445 0
105 126 -495 0
-262 -428 -447 0
328 424 -446 0
-291 -354 -490 0
-17 166 -240 0
-322 344 388 0
157 -219 -481 0
-335 -357 395 0
30 -380 469 0
292 -315 -332 0
54 355 378 0
-23 117 -364 0
-221 239 308 0
76 126 -399 0
259 -302 -384 0
22 452 -488 0
54 -303 418 0
32 -351 491 0
-47 -275 -366 0
-188 -226 -293 0
105 380 479 0
66 -195 357 0
21 -77 -466 0
-75 116 -314 0
-92 405 480 0
-35 -73 -313 0
-77 163 -334 0
229 -382 -426 0
-41 -229 -399 0
261 -278 -389 0
76 -137 -392 0
-116 -274 -442 0
-191 -323 -433 0
-378 395 -425 0
32 -303 434 0
115 282 -307 0
214 -272 343 0
191 -259 -475 0
41 -124 254 0
-100 -185 382 0
125 -197 -261 0
-19 75 350 0
119 -369 -425 0
25 -230 273 0
-323 377 407 0
-117 -278 -439 0
-54 -323 411 0
-63 281 497 0
-66 -392 -409 0
-99 395 -413 0
-232 -360 421 0
102 139 213 0
-177 -259 -462 0
194 375 399 0
-1 -164 -441 0
-191 -301 479 0
61 -91 -129 0
-2 -149 -435 0
63 -64 -425 0
-81 301 424 0
-190 282 -337 0
-35 50 353 0
273 -299 386 0
61 89 -479 0
-67 -235 -468 0
-158 164 -377 0
-283 -293 -407 0
17 -209 439 0
185 -411 431 0
308 391 470 0
-276 -298 416 0
312 423 -458 0
189 -267 -301 0
-129 226 400 0
8 127 -373 0
63 -181 191 0
-2 -182 -206 0
-2 57 160 0
-391 -420 -493 0
83 -136 173 0
32 -175 447 0
211 294 -340 0
157 -170 -476 0
-81 -173 428 0
105 182 374 0
-304 348 -393 0
133 -486 500 0
-336 367 -457 0
-173 -294 339 0
99 -325 -327 0
-21 -113 -415 0
212 240 -305 0
76 -328 369 0
-201 286 364 0
194 -399 -418 0
-94 -396 -464 0
-43 -122 274 0
65 74 -344 0
-125 -304 492 0
-230 -278 406 0
75 -87 -366 0
-82 -102 301 0
181 288 -496 0
-203 -223 -345 0
-51 -332 -364 0
-8 -111 344 0
63 -119 147 0
-171 241 453 0
44 261 263 0
-93 166 -447 0
293 352 -359 0
56 127 -293 0
134 -154 -363 0
296 -416 -428 0
-177 -267 -355 0
45 -90 452 0
37 -253 -383 0
-294 -454 -464 0
117 245 272 0
-131 -397 491 0
-147 172 -208 0
158 318 -415 0
-193 -226 -269 0
146 371 472 0
-60 -209 -290 0
-288 -294 339 0
-57 -118 -281 0
27 38 -203 0
180 -290 -404 0
-46 109 -362 0
50 -235 298 0
-53 164 -188 0
-77 122 -206 0
113 -145 -196 0
194 -384 485 0
12 -221 493 0
352 -464 465 0
-70 -136 -229 0
104 379 -439 0
9 -34 -377 0
120 -363 -384 0
-232 261 423 0
-37 67 -238 0
90 -106 -115 0
-2 70 -220 0
196 367 -431 0
153 -261 487 0
-311 -440 -456 0
93 381 -497 0
85 275 -455 0
-82 435 492 0
24 154 -204 0
-213 266 306 0
60 110 -363 0
-27 -78 -354 0
7 302 -431 0
-299 -369 -473 0
-164 195 459 0
-35 -98 455 0
11 148 382 0
290 -347 410 0
-70 -299 -318 0
42 -256 337 0
245 282 391 0
234 -330 386 0
-198 -271 334 0
-130 369 -473 0
-14 61 -474 0
-117 148 -485 0
10 -240 -333 0
-119 169 391 0
175 -359 -460 0
-8 -49 -142 0
238 -270 292 0
-7 54 -199 0
276 -343 -379 0
-193 -407 -497 0
-156 277 -450 0
39 -232 276 0
-48 -185 -345 0
72 -227 495 0
-53 124 -333 0
-50 289 -310 0
-60 -302 369 0
-10 -51 72 0
84 279 333 0
118 341 -345 0
-10 -210 348 0
-14 -181 422 0
65 92 -488 0
-40 -347 442 0
3 114 -456 0
-94 194 198 0
56 63 -475 0
-20 192 449 0
153 311 -379 0
-64 -236 246 0
-141 -325 427 0
274 -279 -460 0
-141 -365 437 0
-306 -311 -329 0
63 139 -255 0
-52 -53 -294 0
-23 -303 -437 0
151 329 410 0
46 55 -380 0
-19 -213 241 0
-285 337 484 0
28 208 -430 0
-98 -280 -301 0
-2 285 -442 0
-22 -40 115 0
-167 -314 -335 0
215 -218 240 0
-59 289 -470 0
23 210 -253 0
-202 -267 420 0
-55 112 168 0
-325 338 408 0
96 454 -473 0
-277 380 -441 0
35 101 -217 0
-259 333 400 0
-55 -146 -267 0
-72 145 -200 0
-18 -443 456 0
-91 224 396 0
-26 225 -295 0
-279 379 417 0
-120 394 -483 0
166 317 349 0
12 287 482 0
-125 -328 -375 0
447 -489 498 0
-50 73 -291 0
237 -303 -415 0
-233 384 -472 0
-99 -349 -434 0
216 -346 426 0
5 14 -203 0
-160 233 325 0
-214 220 343 0
178 -457 458 0
-333 -429 469 0
-238 333 -500 0
230 -232 236 0
-121 -296 433 0
-33 109 120 0
-140 -368 434 0
-144 404 479 0
43 -332 411 0
-129 317 473 0
-304 -471 -477 0
5 -192 413 0
-152 -453 487 0
-107 -153 -170 0
-82 141 -424 0
-145 -275 -311 0
299 376 482 0
-26 -190 -329 0
51 218 -246 0
-130 189 220 0
-79 -84 280 0
-135 207 291 0
3 -65 -495 0
34 36 -185 0
41 -78 446 0
120 224 455 0
-39 105 431 0
35 263 446 0
225 -292 390 0
-241 300 -320 0
-77 381 466 0
222 -308 -355 0
-199 -351 468 0
27 422 499 0
-92 211 -350 0
264 -351 400 0
-206 250 462 0
-278 363 -465 0
7 -8 223 0
-111 -362 -489 0
373 -393 404 0
-4 -147 313 0
302 -327 498 0
131 -190 211 0
-94 230 -378 0
75 255 -276 0
173 -250 -401 0
-87 128 227 0
-19 -183 230 0
-202 238 -349 0
-98 -240 446 0
231 -350 425 0
178 260 -328 0
141 -364 461 0
189 -280 319 0
264 -469 -497 0
292 -307 -432 0
105 168 -195 0
-171 -268 -470 0
195 236 440 0
43 -215 -239 0
150 176 322 0
-94 270 -306 0
-126 274 -457 0
-36 -121 152 0
-97 216 350 0
291 316 -480 0
-116 -359 -458 0
16 125 -473 0
-78 395 415 0
17 385 -439 0
131 216 -295 0
-94 -198 -330 0
208 215 337 0
2 -14 386 0
34 246 -458 0
3 -476 -486 0
256 -357 471 0
7 -87 -478 0
-262 -354 -405 0
-183 -383 -386 0
24 41 -303 0
-87 -273 336 0
-227 358 495 0
8 -79 483 0
24 366 -412 0
-152 -326 495 0
30 355 447 0
-137 396 -468 0
-54 -158 -484 0
159 314 467 0
-76 -392 472 0
273 -300 303 0
111 -242 -347 0
395 423 442 0
-59 -194 229 0
-79 -92 434 0
-315 -453 500 0
-100 378 -385 0
-174 264 344 0
-170 175 420 0
-115 392 -481 0
-252 355 477 0
-51 448 454 0
-29 -303 -372 0
-134 347 476 0
-216 -254 281 0
53 -170 394 0
-210 -409 -472 0
-64 -74 263 0
27 -111 241 0
-86 -146 348 0
3 169 -197 0
-205 -382 405 0
328 -336 -450 0
-26 30 461 0
-73 -368 -374 0
45 324 347 0
-9 123 -186 0
261 -307 -366 0
115 -131 -470 0
128 -209 -449 0
-133 -209 373 0
59 429 -436 0
214 263 454 0
74 -186 264 0
-48 -94 404 0
-213 377 484 0
73 -259 -348 0
-99 -257 491 0
260 -348 447 0
-342 -392 453 0
73 233 -300 0
87 267 -349 0
28 -415 -496 0
93 338 -418 0
54 349 -457 0
282 -317 383 0
-19 -237 314 0
367 -377 -441 0
212 274 -411 0
-292 391 -492 0
-63 -245 -478 0
80 351 419 0
83 378 -425 0
21 83 -138 0
197 299 -480 0
-303 -370 388 0
-320 -357 -461 0
-123 178 -392 0
359 -376 -416 0
-271 388 -475 0
-264 276 288 0
-177 210 -301 0
-284 292 347 0
-62 127 223 0
96 -234 446 0
141 -173 -206 0
62 -185 408 0
-119 120 364 0
-99 220 -266 0
-33 -113 147 0
259 -265 381 0
82 320 393 0
257 -312 431 0
179 -393 455 0
222 -337 369 0
182 420 429 0
262 265 -300 0
-444 -471 -472 0
-286 376 483 0
187 232 436 0
117 305 -328 0
-122 163 -269 0
-136 -187 277 0
-79 -248 335 0
94 114 -141 0
-212 -330 -410 0
38 -162 -337 0
-273 -362 -388 0
-220 373 -461 0
82 -428 436 0
-64 164 -178 0
312 346 466 0
-9 -14 39 0
-161 314 326 0
63 396 442 0
246 402 411 0
-14 274 378 0
41 -294 484 0
-349 368 -488 0
-53 168 314 0
-13 361 -437 0
-12 -305 -424 0
245 -372 -419 0
20 101 242 0
-21 170 329 0
-253 -382 -391 0
-27 393 -410 0
261 -314 -418 0
-49 418 -450 0
438 462 482 0
-88 102 -330 0
-209 -219 337 0
-4 -139 -301 0
220 221 -452 0
33 -360 469 0
-22 142 -165 0
-92 -299 -403 0
53 136 -453 0
-161 -243 -495 0
-85 -324 368 0
-114 153 332 0
328 354 497 0
71 -188 401 0
264 -425 -485 0
-38 -351 -482 0
129 317 -352 0
78 87 -356 0
-207 -310 399 0
-281 -435 -481 0
122 279 479 0
154 185 -364 0
-150 225 264 0
18 124 267 0
-9 15 447 0
88 165 -396 0
189 -411 450 0
-81 249 424 0
171 361 -432 0
140 411 -437 0
-63 71 -441 0
145 -162 284 0
-274 -322 -468 0
232 -245 -475 0
15 284 -350 0
-261 -273 362 0
-285 345 -434 0
153 280 335 0
80 -119 -344 0
9 296 333 0
71 135 -312 0
129 -199 490 0
47 -81 -389 0
170 250 468 0
91 -257 -471 0
-150 288 432 0
170 -241 346 0
-258 -319 391 0
67 212 -249 0
-85 -243 -375 0
-211 353 374 0
319 -434 463 0
293 -351 -394 0
108 164 464 0
-35 56 -258 0
138 216 -369 0
-39 -127 148 0
84 131 -259 0
84 289 319 0
319 389 433 0
-192 -222 402 0
54 280 392 0
-198 -271 -461 0
83 223 409 0
-249 398 482 0
-23 -97 465 0
-38 50 382 0
86 182 371 0
134 -242 -415 0
21 -94 332 0
77 229 -460 0
-86 -186 402 0
254 -311 -317 0
15 -474 -490 0
-98 355 -415 0
-389 -440 488 0
-74 -120 461 0
32 400 -437 0
32 -108 -254 0
-265 392 423 0
201 396 -494 0
-242 -289 -348 0
-89 142 147 0
357 -388 477 0
223 331 441 0
194 -260 454 0
-13 -71 -384 0
241 339 -350 0
30 -355 -434 0
94 98 -377 0
11 -45 -133 0
35 207 304 0
26 -341 409 0
212 -274 -412 0
-242 -449 471 0
-81 -114 -148 0
-274 -405 442 0
-223 240 254 0
10 -272 -421 0
355 473 -482 0
-140 -338 -363 0
62 352 438 0
-30 -201 319 0
77 260 -455 0
78 -175 -315 0
-159 439 -473 0
-172 362 -400 0
-83 -164 -207 0
-46 114 -193 0
60 -407 -465 0
271 -351 -429 0
-23 227 -335 0
-118 -213 439 0
-147 -246 285 0
314 391 -429 0
-218 241 317 0
-16 232 437 0
-46 154 227 0
88 -325 396 0
-94 -97 206 0
27 -77 -202 0
-79 -208 406 0
-177 184 361 0
-154 -184 -495 0
121 -148 153 0
-3 -203 277 0
-331 387 -453 0
339 -365 -447 0
-4 -212 -466 0
79 110 -131 0
48 -266 -401 0
28 212 -490 0
103 -308 347 0
324 -329 356 0
153 198 436 0
118 -295 437 0
-306 -478 482 0
-45 -179 -302 0
-39 126 131 0
99 -190 484 0
113 354 481 0
-157 -335 484 0
160 -167 -405 0
-217 285 -359 0
285 330 -491 0
-207 406 -419 0
-158 242 -488 0
136 174 -322 0
-110 116 237 0
-83 458 464 0
199 384 -405 0
-413 451 475 0
6 -416 -476 0
11 -101 -236 0
-81 266 416 0
-24 27 -126 0
276 -320 463 0
-399 -421 -470 0
230 -355 402 0
-25 -334 426 0
332 342 499 0
-174 412 495 0
17 -73 222 0
73 -200 263 0
-136 239 378 0
63 -355 -485 0
133 208 356 0
57 -330 -461 0
116 441 -487 0
186 437 456 0
-13 -187 -194 0
-282 360 442 0
-329 -409 434 0
-25 -161 -315 0
13 -339 -459 0
-19 -203 -273 0
-181 -259 -337 0
-82 348 397 0
-40 340 497 0
165 -403 -454 0
-4 28 445 0
-38 266 388 0
111 -160 310 0
-58 -161 -275 0
148 -165 -480 0
-149 218 399 0
-209 -219 -389 0
-28 -295 -400 0
-65 -241 -273 0
203 226 -268 0
42 -375 416 0
170 206 314 0
-317 321 -395 0
36 155 424 0
-111 -196 -264 0
284 -289 488 0
50 -136 230 0
-4 82 143 0
59 299 -355 0
-286 -373 392 0
-109 239 456 0
109 -293 426 0
40 155 216 0
-26 -99 -167 0
-16 -22 -134 0
-14 -161 363 0
-128 -259 328 0
-97 -138 495 0
-65 355 -458 0
-60 -105 -187 0
-52 -470 476 0
97 347 469 0
64 -85 288 0
52 -162 -446 0
-84 300 442 0
-25 -201 319 0
-165 184 -449 0
295 371 433 0
-193 268 -461 0
202 376 -397 0
-103 -212 336 0
-275 -329 455 0
-29 228 -344 0
146 201 -326 0
-1 -278 414 0
-106 -269 -368 0
257 -418 -498 0
-210 313 -384 0
328 430 496 0
-63 76 374 0
-107 -443 495 0
-142 265 -355 0
-142 180 185 0
-31 252 346 0
245 397 413 0
-201 -260 377 0
-70 146 356 0
164 216 225 0
212 -318 -417 0
38 56 -144 0
-140 -215 292 0
-165 -223 401 0
51 -299 457 0
-129 207 430 0
73 107 -340 0
-179 242 346 0
-50 62 -489 0
-40 -112 -462 0
-58 -200 -423 0
129 -136 446 0
-200 -326 -346 0
-134 311 464 0
-4 -160 -255 0
-122 263 450 0
50 -158 484 0
159 -328 -414 0
202 261 -463 0
67 111 -288 0
-188 242 334 0
-28 489 -493 0
44 373 401 0
262 335 -396 0
179 -180 230 0
-100 -183 340 0
-152 166 -428 0
-37 -310 437 0
243 -386 440 0
-109 174 -444 0
-262 349 -382 0
-42 196 -248 0
125 -373 390 0
179 -319 484 0
324 356 498 0
-339 421 -492 0
-44 127 -244 0
-222 311 -468 0
-107 270 -476 0
6 -91 -218 0
36 161 -481 0
-22 146 414 0
228 -391 -421 0
-1 271 -500 0
-69 -229 240 0
-342 -427 484 0
48 216 369 0
34 -125 319 0
67 350 -450 0
-138 307 470 0
241 -361 380 0
207 -229 354 0
139 278 458 0
68 -164 -276 0
76 193 -265 0
259 -363 435 0
50 -318 459 0
-46 -52 -351 0
-57 -197 348 0
-17 -37 157 0
79 138 -281 0
-7 -171 209 0
-55 225 346 0
181 -268 459 0
-332 -358 388 0
-274 284 -410 0
144 229 -232 0
-154 218 279 0
-136 409 449 0
182 352 -390 0
-190 -342 -423 0
-42 126 -154 0
-291 399 429 0
-130 -189 -388 0
-372 -385 -422 0
-101 124 392 0
208 -364 491 0
-116 -207 425 0
-153 -274 327 0
52 -251 -365 0
2 225 -487 0
-288 -318 -496 0
6 -432 -497 0
24 185 475 0
352 -428 -483 0
-245 308 -395 0
54 62 227 0
320 -335 445 0
-133 -369 -463 0
227 357 -438 0
20 -38 426 0
-110 214 -483 0
-98 155 -417 0
16 222 -257 0
9 108 -160 0
329 -376 377 0
9 21 -233 0
-5 -163 -339 0
-94 -269 479 0
-37 -295 431 0
-51 56 -225 0
50 -331 -496 0
7 84 -393 0
53 231 459 0
137 155 -203 0
-58 -105 115 0
18 90 382 0
-297 -312 401 0
2 463 473 0
-177 262 289 0
-92 283 443 0
17 395 457 0
70 292 388 0
142 411 -477 0
-56 211 323 0
-104 -352 410 0
-95 -127 280 0
152 -322 -472 0
31 -270 -467 0
62 85 -157 0
-9 263 -440 0
-2 17 346 0
-109 394 437 0
-185 -395 -480 0
138 -226 -366 0
156 -201 390 0
30 87 -415 0
1 -189 -413 0
-117 198 -330 0
-380 -453 480 0
-186 294 -372 0
31 -205 364 0
348 -355 -410 0
