c description: Random 3-CNF over 500 variables and 2129 clauses
c generator: CNFgen (0.9.6)
c copyright: (C) 2012-2026 Massimo Lauria <massimo.lauria@uniroma1.it>
c url: https://massimolauria.net/cnfgen
c command line: cnfgen randkcnf 3 500 2129
c
p cnf 500 2129
34 -360 443 0
-82 221 -362 0
20 -171 232 0
-118 139 -294 0
-73 -84 97 0
116 169 -472 0
-168 -220 -224 0
63 -134 376 0
142 217 -445 0
255 -383 -496 0
-189 220 -426 0
90 -94 -399 0
-51 296 348 0
-26 211 -383 0
-124 241 300 0
56 -331 -389 0
27 370 395 0
-80 -99 -386 0
-155 222 -283 0
226 -319 379 0
-20 268 -407 0
103 -314 371 0
51 -140 -155 0
-238 358 -408 0
-108 -238 -429 0
196 -334 479 0
41 -105 199 0
108 119 210 0
-89 315 406 0
113 -270 -421 0
100 149 458 0
143 -229 -248 0
-65 156 -376 0
-73 166 -200 0
-15 -163 379 0
-208 -241 -475 0
240 303 -469 0
-26 -375 -469 0
21 -151 -382 0
-389 -402 468 0
-132 -196 -486 0
-36 231 -321 0
168 -193 325 0
141 -371 -425 0
65 -307 482 0
-69 -183 -344 0
221 380 -383 0
53 135 -433 0
37 142 254 0
-61 78 -335 0
5 -362 492 0
15 42 477 0
-159 190 -296 0
43 348 -449 0
211 337 -382 0
-373 -425 441 0
283 372 466 0
-367 437 468 0
64 124 -200 0
-49 -171 478 0
-45 98 -161 0
40 273 496 0
-189 -485 -492 0
99 337 398 0
-170 180 -486 0
160 -170 476 0
-211 386 392 0
50 -148 287 0
-28 113 -436 0
3 173 248 0
166 313 471 0
134 386 -419 0
392 -393 -468 0
64 -141 265 0
-409 -458 464 0
-144 400 497 0
-119 251 272 0
7 -265 284 0
55 247 -305 0
114 -159 415 0
10 -53 -461 0
54 257 360 0
162 192 441 0
169 173 -462 0
110 188 224 0
33 -174 -286 0
66 378 -395 0
15 -154 467 0
133 -163 -500 0
1 46 -395 0
-196 286 -461 0
81 -101 490 0
31 -167 -322 0
118 -242 -316 0
-186 -285 424 0
-22 -362 421 0
257 -390 -399 0
45 237 406 0
430 462 490 0
-47 -489 496 0
-48 361 -445 0
-33 375 411 0
143 262 369 0
107 194 -212 0
-157 -341 348 0
-38 -39 267 0
-61 -258 -294 0
40 214 -317 0
9 -355 402 0
99 166 196 0
-66 257 326 0
-135 -268 317 0
61 89 -329 0
322 335 -364 0
133 180 494 0
-15 169 396 0
-33 373 414 0
-113 240 -381 0
-16 -490 497 0
193 293 -347 0
29 72 -467 0
21 356 418 0
-12 261 269 0
4 -78 207 0
-223 270 464 0
74 -161 -268 0
100 -160 -392 0
217 -365 -391 0
-138 -245 299 0
33 -113 -265 0
213 376 -460 0
-211 -264 445 0
-112 140 -249 0
32 -451 -465 0
-201 -370 -455 0
-217 394 -456 0
-39 -133 -281 0
-24 31 475 0
-311 376 -380 0
241 -480 -491 0
-191 -200 439 0
148 -425 500 0
144 168 361 0
-123 -279 309 0
108 257 -411 0
69 329 486 0
-106 317 -491 0
168 -215 -288 0
-16 -51 407 0
104 -201 291 0
-9 -26 -443 0
-11 -54 340 0
-41 104 -260 0
-21 -66 325 0
1 160 497 0
227 335 478 0
-204 -243 439 0
-166 -192 -355 0
-101 -256 -468 0
98 -290 -353 0
40 -41 94 0
47 393 464 0
329 331 472 0
17 -83 -391 0
-167 171 366 0
63 112 -480 0
-183 -389 -396 0
-240 -332 -423 0
117 -341 451 0
76 115 -121 0
-12 97 -495 0
175 -360 -445 0
18 -283 374 0
46 77 484 0
37 379 445 0
-13 -382 -414 0
-44 191 -414 0
4 82 258 0
394 439 474 0
48 -96 -219 0
11 148 -297 0
-168 -288 492 0
-214 -432 -435 0
-4 397 -468 0
165 285 -345 0
-13 155 -420 0
114 128 -263 0
-15 302 497 0
111 -137 437 0
-68 -151 -301 0
14 -87 394 0
-147 -373 -421 0
217 -240 -256 0
-139 239 347 0
2 -376 -489 0
-355 -400 417 0
335 -384 396 0
-39 -96 -406 0
-284 -296 -423 0
-27 43 -87 0
-174 361 -364 0
-27 243 -376 0
-37 61 403 0
-232 341 371 0
-230 281 -354 0
-26 63 -192 0
29 -140 495 0
-39 -108 -290 0
22 -241 -390 0
-19 -135 280 0
216 429 -495 0
-105 208 309 0
-347 350 498 0
-132 -385 422 0
-11 -425 -451 0
305 -336 397 0
-10 -335 445 0
101 -158 -336 0
262 -362 -381 0
-10 -34 102 0
26 -72 -305 0
19 278 -476 0
293 -384 -477 0
200 404 431 0
-151 296 486 0
-26 -233 -267 0
178 -246 291 0
-200 -217 249 0
142 -191 -228 0
-145 -349 -484 0
149 418 466 0
183 301 302 0
60 -133 164 0
54 -141 401 0
17 44 136 0
49 77 -101 0
19 132 -289 0
-114 349 386 0
155 260 -417 0
11 -129 -283 0
12 109 -232 0
-221 -325 343 0
-242 266 475 0
-61 186 207 0
-83 -455 -458 0
-89 244 293 0
-31 236 256 0
58 -139 -349 0
226 -302 306 0
-41 252 446 0
60 253 441 0
-98 126 -459 0
85 -275 -385 0
-306 -361 -423 0
114 379 400 0
-128 -303 319 0
223 295 472 0
127 -146 -258 0
-1 78 -397 0
3 128 192 0
-44 145 275 0
114 -311 465 0
431 434 -469 0
24 -352 482 0
58 355 383 0
148 -165 -274 0
-83 366 409 0
-26 -55 -206 0
24 157 -229 0
92 -282 -323 0
7 -213 -314 0
115 -420 -472 0
-100 -158 322 0
-46 -146 -187 0
200 -238 -358 0
165 -228 -358 0
108 134 248 0
5 -257 -354 0
61 -306 -403 0
-280 -283 465 0
35 133 343 0
-204 303 -327 0
102 -442 450 0
197 273 -347 0
-10 228 -449 0
59 389 419 0
-249 328 366 0
172 -210 -327 0
-208 300 425 0
69 -259 -447 0
204 292 357 0
-46 268 288 0
87 -145 -252 0
-406 -437 483 0
140 344 -390 0
-245 -290 386 0
-316 -412 -492 0
250 -325 327 0
-207 209 -256 0
-215 -470 487 0
106 -122 382 0
161 221 -435 0
188 238 -359 0
-172 -189 372 0
52 -187 324 0
-277 337 351 0
152 244 282 0
43 95 -127 0
-152 -226 -495 0
26 114 182 0
203 -336 -384 0
-38 110 355 0
-84 -140 -375 0
148 -261 284 0
-199 -335 -484 0
219 244 405 0
132 333 -372 0
92 241 -298 0
-174 457 498 0
135 -236 -328 0
219 -251 -345 0
304 411 -473 0
-177 -362 486 0
43 -270 396 0
-284 -300 347 0
1 -22 -401 0
-63 -66 -126 0
35 50 -361 0
192 -220 -279 0
240 327 -369 0
-51 112 128 0
-131 240 -300 0
323 339 478 0
-94 -445 499 0
-36 226 -306 0
-14 -270 -353 0
114 127 430 0
-139 -318 -473 0
-33 78 -468 0
-122 -277 -465 0
13 -82 143 0
8 344 356 0
167 -177 -271 0
31 262 -288 0
246 -400 -464 0
-98 161 356 0
176 342 450 0
-22 275 376 0
-403 477 497 0
229 -455 469 0
217 267 -470 0
233 345 -395 0
-40 209 252 0
108 -290 420 0
78 -162 -393 0
145 230 -255 0
8 -80 146 0
285 460 494 0
-82 -336 481 0
-84 102 157 0
-18 108 -476 0
50 -218 427 0
-15 338 -464 0
-331 -346 347 0
189 -193 381 0
59 214 -304 0
134 -261 308 0
41 -130 339 0
99 -127 -166 0
39 398 426 0
253 430 -470 0
-206 401 -469 0
-256 364 -448 0
30 76 371 0
9 -250 492 0
260 335 350 0
220 -307 -397 0
224 -410 475 0
190 293 472 0
114 -197 -409 0
332 334 -359 0
65 100 -495 0
247 -290 -401 0
-271 -280 -318 0
-127 241 441 0
-36 130 382 0
141 -299 -437 0
196 327 396 0
104 -251 427 0
-32 -48 -211 0
135 -168 408 0
-75 -339 -380 0
-119 -333 484 0
-168 -253 -292 0
-43 -278 -423 0
154 271 -332 0
161 287 382 0
-9 310 -372 0
94 290 -437 0
-185 -319 -476 0
88 -92 -360 0
195 200 425 0
-97 157 -382 0
-133 -201 -246 0
45 -177 -375 0
-27 228 384 0
138 161 -279 0
-183 213 -233 0
-104 209 231 0
-60 -97 348 0
-138 -269 -454 0
271 -315 388 0
-43 417 -482 0
334 351 -407 0
-265 324 354 0
-26 -51 -198 0
282 -324 346 0
312 -415 -458 0
-185 440 -481 0
125 -335 444 0
-180 192 405 0
48 82 -133 0
283 412 -430 0
18 -254 320 0
57 210 483 0
-100 -344 428 0
-13 131 -438 0
-24 113 489 0
54 304 485 0
319 -372 -456 0
142 -318 -474 0
189 -280 499 0
105 139 327 0
-166 199 472 0
-7 -252 472 0
-151 -154 -325 0
121 -213 -243 0
-89 -151 -319 0
34 -37 195 0
211 -421 -493 0
118 -278 -349 0
-88 398 466 0
191 292 346 0
-5 199 -233 0
139 -148 -444 0
110 -256 -445 0
378 453 477 0
-118 -445 448 0
216 -242 -338 0
353 -412 484 0
90 -116 146 0
-105 110 173 0
-22 366 448 0
-57 -247 -403 0
89 -91 134 0
-218 385 -435 0
32 -132 415 0
98 461 -481 0
159 364 413 0
-167 309 -435 0
-302 470 492 0
-117 -376 454 0
17 97 -412 0
66 220 -373 0
-287 315 -367 0
209 254 260 0
82 -273 -345 0
206 220 -392 0
-8 -70 -436 0
64 72 -419 0
25 -37 398 0
20 -142 285 0
72 -136 -464 0
87 -106 -495 0
136 160 -468 0
51 -266 -457 0
-34 -452 -453 0
82 -318 376 0
-165 -418 -449 0
94 -199 -204 0
99 405 -421 0
172 345 -355 0
-87 264 -367 0
-20 -174 196 0
-34 -51 224 0
-193 253 -466 0
16 -19 -461 0
-69 -375 -500 0
-34 -127 -335 0
302 -323 453 0
-23 206 442 0
100 -260 320 0
49 -280 345 0
-84 263 -401 0
302 -361 488 0
68 -284 329 0
-7 76 430 0
-90 -199 -474 0
183 -247 -414 0
221 316 321 0
190 339 -484 0
-159 -218 -462 0
113 -374 456 0
53 -82 -330 0
27 136 329 0
-120 -174 -371 0
52 -112 181 0
-77 322 -428 0
-291 434 -443 0
57 357 -409 0
270 320 496 0
21 -241 -377 0
-258 -329 336 0
-65 -234 442 0
136 144 333 0
17 222 -367 0
-61 -93 -453 0
85 -201 -417 0
-298 321 374 0
33 93 478 0
-50 70 387 0
203 353 -477 0
-227 251 -302 0
287 -353 -473 0
-37 244 -289 0
-254 -347 -497 0
-13 168 -191 0
-19 -207 224 0
97 375 411 0
32 281 305 0
-115 146 -417 0
275 282 377 0
91 179 473 0
-46 -48 -50 0
-48 171 -354 0
269 -311 -340 0
237 -327 -407 0
-105 195 485 0
9 -120 -195 0
-130 353 -379 0
-263 360 -481 0
292 369 -437 0
-49 260 -459 0
-204 412 448 0
-225 -240 -288 0
-7 -34 434 0
-6 -43 -245 0
177 180 477 0
-370 -457 496 0
252 340 418 0
-286 -344 -483 0
-77 323 395 0
-181 -389 408 0
-76 -457 -481 0
43 63 -123 0
312 323 -417 0
-15 148 -289 0
30 -380 -403 0
45 -113 -224 0
189 -200 -348 0
-73 -75 317 0
-223 -373 -470 0
-214 363 -459 0
-44 -114 -357 0
45 -179 403 0
-3 -184 -418 0
139 200 484 0
-9 327 -342 0
164 -218 -426 0
-36 -373 492 0
32 317 -343 0
-140 463 468 0
-172 -217 289 0
-114 -315 -333 0
346 469 -480 0
15 23 163 0
5 275 -397 0
134 -261 480 0
-295 403 -446 0
65 -84 229 0
-219 415 446 0
-230 282 -443 0
166 -193 -309 0
-153 278 -470 0
-20 -34 -122 0
145 -449 454 0
148 407 460 0
-141 300 426 0
139 -218 -409 0
61 -174 -256 0
-147 425 463 0
203 445 -476 0
87 -301 333 0
-110 -193 -325 0
-176 264 -308 0
224 -346 431 0
-311 323 488 0
167 -203 -232 0
-84 -211 376 0
-19 -23 288 0
-54 -59 -412 0
83 109 -164 0
-48 -176 451 0
-95 -204 421 0
153 315 -335 0
-103 -136 -161 0
-25 77 358 0
124 323 463 0
69 -401 476 0
59 374 405 0
114 175 415 0
-144 319 380 0
112 274 306 0
59 111 405 0
-159 206 -242 0
295 304 327 0
-90 119 -214 0
-1 -27 -255 0
25 -238 -322 0
58 -153 226 0
-69 122 162 0
-122 -171 -280 0
-237 265 -405 0
-53 413 -415 0
36 -129 219 0
-39 440 -446 0
-116 -265 -342 0
158 340 426 0
-82 -367 494 0
-38 -141 -470 0
-270 -390 450 0
150 237 351 0
68 -150 -414 0
2 189 -271 0
80 179 185 0
-57 -320 496 0
-172 373 475 0
126 -167 -250 0
22 56 375 0
184 -196 500 0
109 -186 496 0
-29 343 -346 0
298 -390 -472 0
-219 315 355 0
154 286 -350 0
-159 -279 371 0
30 -151 -225 0
-141 -178 -436 0
-245 -392 -455 0
-153 156 -254 0
10 282 -380 0
-12 107 209 0
-184 436 489 0
81 298 -399 0
179 189 205 0
64 -371 -469 0
210 280 437 0
180 -212 -385 0
-261 271 -347 0
3 -56 -103 0
-277 348 -476 0
154 170 -413 0
48 -82 -253 0
425 461 -494 0
-81 -92 419 0
232 387 -437 0
-133 180 -500 0
179 275 382 0
26 -410 429 0
53 -177 -234 0
-276 -370 -496 0
-4 -174 -265 0
-26 -254 -475 0
-76 318 -429 0
-173 -463 -474 0
58 176 -475 0
9 -89 -197 0
73 -190 -413 0
102 -146 307 0
164 312 386 0
-23 52 -353 0
289 324 -425 0
27 -323 -463 0
-45 158 -460 0
-208 229 499 0
267 374 452 0
-58 456 488 0
-146 -426 -479 0
-117 324 336 0
30 44 447 0
-41 166 -401 0
235 431 459 0
175 -295 -297 0
337 -388 496 0
-38 187 257 0
-70 399 -412 0
139 175 -488 0
-25 -289 499 0
130 -245 465 0
-14 124 287 0
-200 266 350 0
-50 -390 484 0
-319 489 -494 0
16 173 -339 0
-79 189 383 0
-13 -316 430 0
-175 -231 -251 0
-99 -280 -349 0
-83 -130 211 0
-19 -66 -471 0
-95 268 396 0
278 321 -323 0
176 205 -252 0
74 206 475 0
260 -327 369 0
184 -196 -404 0
-62 -203 -499 0
-195 250 403 0
7 209 -295 0
-63 -144 180 0
-86 -293 449 0
-154 -204 -241 0
-51 54 345 0
20 -165 359 0
-1 418 -500 0
75 -319 365 0
-27 -100 -475 0
40 159 -376 0
-35 -119 253 0
35 238 316 0
-246 257 -309 0
21 385 481 0
82 -396 412 0
102 -193 -244 0
-136 -251 -365 0
-145 179 234 0
72 -200 -464 0
-106 233 -253 0
295 320 375 0
134 -303 396 0
139 -217 -300 0
-110 317 -441 0
-168 179 -330 0
115 212 -304 0
71 -345 -499 0
-3 108 -372 0
11 248 438 0
126 -418 422 0
86 -223 392 0
-10 40 -265 0
-98 -232 457 0
-55 465 -485 0
55 -301 466 0
102 -448 -451 0
113 -220 -263 0
-73 -77 94 0
-74 102 220 0
192 307 -341 0
32 355 -470 0
-10 -95 491 0
121 -207 453 0
310 -313 456 0
50 -140 294 0
-41 -142 316 0
29 237 -429 0
237 -326 362 0
-217 423 430 0
-154 266 -335 0
367 -445 478 0
-2 40 -371 0
49 -142 229 0
144 -197 452 0
463 473 -480 0
80 -435 -492 0
-23 277 -400 0
119 196 -284 0
28 -87 141 0
166 -191 -352 0
-86 -201 -449 0
5 119 -128 0
107 295 427 0
-52 199 -465 0
287 -448 -479 0
27 291 344 0
288 294 492 0
51 372 -376 0
-76 -200 401 0
-20 187 -362 0
-34 189 -405 0
-47 -171 426 0
-142 155 413 0
215 -262 468 0
320 -368 -390 0
174 191 272 0
318 -410 -438 0
-174 336 -418 0
9 117 -396 0
-409 448 -492 0
-81 114 -434 0
287 388 -456 0
-94 -176 -311 0
115 142 243 0
49 -133 -498 0
179 240 -360 0
131 -207 -366 0
-30 -270 -393 0
29 134 -467 0
-94 -167 468 0
-47 -73 -273 0
87 -262 403 0
-340 455 -490 0
-6 -95 132 0
-39 -295 -341 0
-28 -159 245 0
-180 255 -309 0
-366 -371 -378 0
-15 -177 -205 0
217 249 499 0
214 -289 425 0
49 77 203 0
-134 -353 -499 0
-31 -112 -354 0
145 -401 -419 0
-189 410 -433 0
193 270 -283 0
-217 -412 -443 0
137 -225 272 0
-124 -157 -239 0
45 121 160 0
-226 -227 318 0
-118 150 162 0
118 -209 -298 0
-254 -428 496 0
-58 -93 -167 0
83 -388 -468 0
45 86 352 0
-49 128 371 0
-117 180 -474 0
-141 169 330 0
16 -173 363 0
-48 -311 -332 0
-182 234 -468 0
70 -88 181 0
-167 255 -340 0
62 149 421 0
-80 -115 468 0
170 -263 489 0
-269 -320 358 0
-386 -423 457 0
-109 188 -240 0
-241 360 -442 0
44 88 -449 0
467 495 499 0
110 -313 484 0
128 -376 -378 0
6 -270 -390 0
141 428 -480 0
-165 305 -361 0
72 92 -446 0
90 200 417 0
-303 -354 -464 0
155 -203 470 0
76 -94 356 0
-18 150 -419 0
174 -357 -434 0
1 -42 -285 0
-26 151 406 0
220 266 -289 0
-55 245 370 0
-74 -137 -446 0
-54 298 -469 0
190 272 302 0
-227 425 499 0
-75 243 -257 0
131 228 342 0
-223 -370 426 0
133 -248 428 0
4 391 460 0
-156 -214 327 0
-63 172 -227 0
48 -70 208 0
-255 -407 478 0
-72 166 -371 0
-79 87 291 0
104 163 314 0
105 107 -391 0
-284 -396 -485 0
57 165 -250 0
-184 258 -314 0
-10 210 401 0
-112 191 -283 0
200 -301 -336 0
-59 440 493 0
-63 -204 208 0
-70 -374 -406 0
-231 415 -467 0
-164 -173 258 0
19 237 339 0
-14 200 248 0
-19 102 267 0
365 372 -444 0
178 302 435 0
-10 382 -399 0
158 -240 267 0
72 414 474 0
102 286 -468 0
-131 -147 -353 0
89 -240 -443 0
-24 245 430 0
-398 410 469 0
-48 -111 209 0
-78 164 -254 0
-80 269 -360 0
309 346 -487 0
-124 -207 218 0
313 -350 -497 0
176 247 -405 0
-21 -358 468 0
-67 -383 -491 0
-56 -99 -219 0
265 -328 391 0
86 161 472 0
-65 -99 364 0
25 -66 -192 0
-22 179 -427 0
-148 -178 267 0
-55 213 254 0
308 -332 359 0
155 -369 -474 0
-223 374 497 0
-155 243 -313 0
99 107 312 0
45 -195 -260 0
-41 -330 368 0
-19 -205 237 0
-143 176 372 0
-56 -416 -486 0
24 227 297 0
140 -141 -319 0
297 307 -345 0
-5 166 290 0
-32 38 -39 0
21 71 -209 0
-166 194 407 0
123 -437 -475 0
-73 -357 -484 0
-13 -134 297 0
-121 349 -399 0
158 -197 465 0
-231 -465 494 0
-394 478 -499 0
81 -312 473 0
28 225 -330 0
-41 148 396 0
-13 191 -295 0
138 287 -289 0
261 408 -417 0
245 -406 -425 0
216 -275 -462 0
88 149 264 0
-250 440 494 0
10 -299 315 0
184 262 -291 0
-62 174 -354 0
36 -237 -421 0
-245 -380 -459 0
-120 -298 318 0
-11 -308 -353 0
-82 87 176 0
284 408 413 0
-298 400 -486 0
138 -308 -434 0
-217 245 -348 0
-1 -57 196 0
-8 127 133 0
231 328 445 0
335 -414 -419 0
137 254 427 0
46 -278 -399 0
118 -162 328 0
16 119 440 0
-19 -96 219 0
-52 64 145 0
145 344 -410 0
133 -267 -438 0
-218 301 -309 0
-43 168 229 0
57 -224 -267 0
192 350 -441 0
-167 -269 -348 0
33 -203 -414 0
84 -329 396 0
-404 -456 -464 0
244 440 -454 0
281 -321 -341 0
-223 429 -439 0
143 398 433 0
101 -277 -281 0
-261 307 412 0
160 195 -485 0
140 -199 424 0
25 262 317 0
128 349 -481 0
-130 247 -392 0
-25 -44 -275 0
-63 267 -483 0
200 -411 -500 0
2 -410 -463 0
16 -61 356 0
40 374 -417 0
72 -155 329 0
136 232 -293 0
-85 -129 -346 0
-181 220 -280 0
151 320 479 0
18 -173 471 0
207 -223 -225 0
250 395 412 0
238 -354 417 0
74 -206 -272 0
136 -285 -495 0
43 -160 -266 0
16 -303 376 0
-20 254 -454 0
-131 181 399 0
152 -276 -351 0
-108 -225 307 0
11 -25 -275 0
2 -50 65 0
95 123 -274 0
90 361 481 0
-309 331 -419 0
-220 241 -405 0
81 -398 469 0
-95 207 -439 0
-37 -189 490 0
74 -397 442 0
-98 -102 -333 0
212 -352 -412 0
137 -245 369 0
128 241 346 0
123 169 239 0
-14 18 -226 0
87 147 296 0
21 -232 -484 0
57 -139 164 0
269 -279 -475 0
-169 475 -486 0
-345 350 478 0
-216 -367 426 0
-178 -339 347 0
-139 140 209 0
-144 250 258 0
11 -304 -404 0
42 56 181 0
-84 147 -240 0
-293 -359 -395 0
286 427 -429 0
232 306 364 0
6 -292 -307 0
201 328 -332 0
244 420 -450 0
-209 -317 367 0
-322 404 -498 0
195 -240 484 0
77 127 478 0
76 -97 182 0
-116 243 463 0
127 -138 378 0
17 74 310 0
181 -199 219 0
-19 21 393 0
86 -155 -225 0
214 253 -301 0
-1 260 348 0
-49 287 -444 0
-80 326 498 0
-5 72 223 0
-419 423 -494 0
24 328 491 0
-171 -274 478 0
-167 -305 -409 0
83 -385 -494 0
30 -319 -334 0
313 -359 399 0
145 -284 381 0
-260 -355 394 0
97 -232 354 0
-175 -268 -473 0
-318 321 -326 0
-233 296 -488 0
-208 380 -407 0
269 -316 343 0
85 377 -487 0
-61 -353 -371 0
-209 -262 316 0
-149 -267 427 0
-4 -121 -392 0
202 -233 495 0
-241 -404 -409 0
210 -417 -457 0
-210 228 431 0
151 260 -323 0
159 178 -479 0
42 -248 -287 0
84 -209 -484 0
123 -458 481 0
203 290 -462 0
-43 -207 -220 0
34 360 364 0
1 -50 -495 0
-133 -345 -373 0
-84 150 282 0
98 312 447 0
186 -434 -487 0
115 129 288 0
110 303 -469 0
-326 365 391 0
52 88 -319 0
-136 -223 274 0
-43 76 -163 0
-45 81 364 0
47 -328 363 0
28 172 -323 0
-170 336 -480 0
-234 287 290 0
-194 -220 -240 0
-78 389 -418 0
70 273 -472 0
264 284 468 0
-22 -196 -381 0
151 307 459 0
-5 46 402 0
227 337 457 0
-150 -239 409 0
200 356 -425 0
21 175 -469 0
157 294 -439 0
-90 -116 -185 0
-371 -392 449 0
-105 -197 -336 0
-67 -215 -328 0
65 132 178 0
81 -133 278 0
-286 -464 -498 0
-146 -451 483 0
-176 291 -383 0
-335 -442 -447 0
171 -313 426 0
-125 369 -391 0
345 381 442 0
-394 420 434 0
-27 72 -210 0
54 -366 -414 0
-33 99 -423 0
-212 -440 451 0
148 -254 -452 0
-262 -282 286 0
77 89 415 0
302 426 -448 0
-94 109 -204 0
-280 -424 430 0
32 -106 -118 0
-5 188 330 0
-333 419 430 0
-1 68 -162 0
-140 -175 256 0
-205 -255 384 0
17 63 308 0
-119 -193 -337 0
-2 118 240 0
-147 -211 -427 0
286 335 -401 0
95 309 -414 0
-4 33 135 0
203 220 -305 0
170 -295 -467 0
131 -265 279 0
116 304 493 0
86 268 -425 0
-32 67 459 0
-109 253 414 0
36 -260 366 0
284 -286 477 0
-34 -264 428 0
-72 268 326 0
-7 -183 -304 0
-372 -396 -426 0
-364 -410 -451 0
-79 -267 -309 0
-210 -290 -312 0
199 273 -279 0
74 201 470 0
63 -120 327 0
40 -156 -355 0
16 63 433 0
-15 -95 -387 0
4 -277 -288 0
-84 -141 203 0
-7 196 286 0
181 297 453 0
72 265 460 0
265 -339 -364 0
-50 -225 479 0
208 239 -498 0
-13 -66 284 0
-77 330 390 0
411 -434 -438 0
-33 34 209 0
-16 -25 -294 0
1 480 -487 0
90 -130 -325 0
-71 -316 -469 0
26 -68 109 0
-274 336 489 0
150 191 404 0
379 419 424 0
-17 187 414 0
296 -341 394 0
-35 -411 -441 0
-151 -179 322 0
-30 141 252 0
113 212 498 0
-92 -150 232 0
-274 386 406 0
-126 -307 -498 0
5 197 -371 0
13 -225 -318 0
38 79 341 0
54 387 484 0
-216 341 -413 0
-23 -343 -435 0
-37 -110 -377 0
73 -78 234 0
-358 365 -471 0
177 -434 -443 0
-119 440 496 0
84 90 -319 0
20 400 487 0
-28 334 447 0
-72 144 329 0
-136 431 -483 0
132 457 -468 0
-48 -95 -117 0
7 190 306 0
-119 -153 414 0
41 399 474 0
85 123 -496 0
28 76 -393 0
-235 -268 -357 0
146 -205 267 0
197 -396 -490 0
-260 -373 -461 0
50 141 261 0
-27 -467 -488 0
42 45 102 0
191 -204 355 0
331 -382 405 0
21 -93 94 0
-57 -167 -480 0
173 -190 -358 0
3 -181 -271 0
3 -46 440 0
-49 195 411 0
72 -179 -235 0
103 -273 466 0
95 129 460 0
-19 -47 -93 0
-39 -61 412 0
-81 -105 -332 0
53 115 280 0
-253 -397 -406 0
34 51 490 0
83 301 -469 0
-32 60 -308 0
-26 -375 -434 0
9 71 261 0
167 -446 500 0
355 365 467 0
121 -136 304 0
24 -113 -149 0
40 -472 -485 0
39 241 -283 0
-54 467 -476 0
-76 110 384 0
-232 -244 -268 0
-136 -315 -347 0
-281 379 -447 0
12 -209 295 0
-241 334 500 0
-15 16 -326 0
-31 -270 -278 0
167 -355 -373 0
143 -157 -465 0
-156 340 -384 0
-18 -214 392 0
-39 -91 133 0
-16 37 -71 0
-243 -375 -419 0
-183 -202 -384 0
124 266 344 0
-14 339 -363 0
-20 -248 -394 0
-52 60 300 0
-134 -420 500 0
422 477 -499 0
-93 -333 357 0
18 433 479 0
176 341 387 0
-247 294 -489 0
189 269 -300 0
-24 -70 -485 0
-120 194 -300 0
209 319 -390 0
-241 280 487 0
35 -238 290 0
-367 472 -484 0
-19 -256 327 0
216 -219 347 0
38 -121 287 0
348 447 -475 0
-380 406 -461 0
-40 -186 -355 0
-44 -57 355 0
-93 408 -415 0
9 15 115 0
-145 -355 -379 0
35 461 -480 0
-293 -454 -492 0
97 -211 381 0
-77 364 -372 0
-214 -452 453 0
163 310 453 0
-73 134 -495 0
108 140 -153 0
25 -146 196 0
-16 186 288 0
-108 -113 480 0
-64 194 -267 0
74 79 153 0
226 -365 383 0
80 147 -418 0
124 -245 354 0
-85 -321 499 0
48 -124 -419 0
-122 162 408 0
99 -113 -231 0
197 -270 -328 0
-223 -225 334 0
-172 259 441 0
35 145 -366 0
114 -235 -262 0
-192 -338 -352 0
114 -283 312 0
-218 -258 385 0
111 236 312 0
-212 -338 -340 0
-291 419 466 0
79 -231 243 0
-248 -254 282 0
-242 264 408 0
-111 180 -259 0
-168 209 402 0
36 371 390 0
120 128 -225 0
88 -90 -265 0
30 -469 491 0
6 -190 270 0
57 -124 135 0
-31 188 -329 0
34 -395 -462 0
-473 -489 498 0
-52 73 -380 0
184 378 487 0
25 -84 -469 0
-100 254 346 0
-101 -389 -483 0
-62 66 -398 0
-13 292 -377 0
-45 135 349 0
195 -256 481 0
1 -52 -446 0
22 424 -493 0
-110 302 459 0
-156 380 -452 0
233 244 404 0
7 -290 -457 0
188 -400 402 0
-179 288 -369 0
195 -211 -329 0
-296 401 411 0
93 -95 -425 0
82 -219 -470 0
-169 -239 269 0
-88 164 -255 0
-40 224 -281 0
-9 108 322 0
-264 -292 472 0
164 -264 376 0
-292 -429 -454 0
49 -159 -187 0
412 416 -498 0
85 -252 -427 0
114 -189 -234 0
15 -232 257 0
12 326 -461 0
-16 -297 -361 0
30 -160 -421 0
47 -215 -216 0
120 -214 -470 0
198 354 -482 0
76 226 -330 0
-147 -208 280 0
-216 455 486 0
-151 232 410 0
-329 444 -486 0
-49 152 -472 0
60 89 207 0
44 241 -473 0
35 -153 265 0
-19 234 -274 0
-60 -235 -277 0
-5 82 -319 0
155 253 484 0
-95 286 -496 0
148 330 365 0
-97 -250 417 0
-170 -185 227 0
7 -342 -378 0
55 -108 293 0
-78 153 379 0
-238 286 -303 0
-114 -120 139 0
84 -124 129 0
-140 196 346 0
128 439 463 0
86 -365 -390 0
-43 123 -169 0
-282 -300 408 0
-236 -414 -499 0
87 -134 -301 0
-96 -166 417 0
-144 -238 -489 0
-161 -180 263 0
-155 -246 -314 0
78 -176 -330 0
272 -347 468 0
-28 -71 176 0
192 249 -487 0
242 346 -347 0
-75 -315 -369 0
-40 411 -434 0
164 -215 -280 0
106 203 -249 0
-109 -347 -416 0
-217 -388 425 0
-284 -448 472 0
-114 -191 263 0
-108 -153 -489 0
312 -348 412 0
-274 339 356 0
-323 347 498 0
63 -152 -246 0
-4 206 -326 0
84 -115 242 0
150 -274 458 0
37 125 352 0
-74 432 -462 0
220 -416 -420 0
98 -244 -411 0
-382 424 486 0
282 -424 430 0
89 -369 463 0
106 -256 292 0
110 376 -441 0
116 235 445 0
-47 -141 -172 0
-170 -216 -395 0
221 -242 -420 0
215 -384 -465 0
-115 -170 254 0
-81 -98 118 0
-30 317 425 0
23 -105 309 0
-283 323 442 0
143 -246 469 0
-159 -246 -461 0
187 479 -495 0
43 -380 417 0
61 165 210 0
44 79 -437 0
-175 211 458 0
74 124 -352 0
336 410 -498 0
79 -198 -322 0
298 366 -392 0
227 451 -486 0
3 123 -150 0
-47 -203 -468 0
17 32 353 0
-9 -302 -496 0
-154 -340 452 0
108 237 338 0
-67 88 209 0
-8 16 211 0
14 -114 -257 0
195 -262 435 0
-46 -178 250 0
-158 -242 -343 0
-114 200 -417 0
77 -224 -465 0
284 -312 460 0
-330 -407 -485 0
119 393 395 0
-157 344 -480 0
8 -152 -351 0
257 -277 454 0
192 224 -378 0
-273 276 333 0
-78 -223 -299 0
173 -283 423 0
-34 50 304 0
126 -165 -367 0
-18 -215 395 0
142 -309 -388 0
-270 397 483 0
-170 -454 484 0
-170 322 411 0
-70 312 489 0
129 323 406 0
266 288 371 0
-172 348 -454 0
120 296 -444 0
-150 360 -465 0
244 -329 395 0
200 349 419 0
37 -190 274 0
36 65 388 0
191 335 -438 0
101 -266 331 0
145 -265 -441 0
-69 252 278 0
96 -261 -384 0
-66 -180 262 0
103 263 385 0
-81 -131 -253 0
-91 161 -177 0
373 420 -426 0
-110 -170 -477 0
39 -308 438 0
99 389 390 0
-53 -187 -456 0
34 -210 -267 0
-98 101 480 0
76 -125 -200 0
-56 -311 -369 0
-44 121 -149 0
-94 -229 -497 0
90 122 -213 0
-120 -302 331 0
82 -285 -293 0
-80 -188 311 0
95 -261 330 0
-71 100 215 0
-47 115 -143 0
10 109 -172 0
-160 -419 493 0
-134 143 366 0
16 291 292 0
119 -289 -360 0
55 113 494 0
42 -234 -445 0
-283 368 406 0
-29 237 -358 0
236 361 -420 0
147 -280 -405 0
378 482 -483 0
-103 274 461 0
-47 -56 -388 0
-333 353 -356 0
162 271 317 0
-43 -319 -433 0
90 -372 -496 0
49 -296 -456 0
-74 199 428 0
-256 257 443 0
260 284 -482 0
-108 -366 -381 0
86 207 -212 0
-339 402 467 0
-38 -263 489 0
-111 189 342 0
-257 341 452 0
-239 -412 441 0
-15 64 394 0
80 -211 237 0
45 322 412 0
89 -283 340 0
48 285 349 0
373 -388 405 0
25 168 -197 0
-33 62 476 0
-57 301 360 0
24 32 362 0
-74 165 321 0
24 -223 -463 0
225 309 -359 0
-110 196 -216 0
140 213 -386 0
-187 -417 -455 0
-115 -249 379 0
109 317 -459 0
55 378 -424 0
165 264 -439 0
343 411 -472 0
-97 -166 212 0
-95 185 -237 0
338 -457 -465 0
129 337 372 0
-47 -244 401 0
52 -278 -379 0
420 -478 -489 0
129 -209 -276 0
323 353 -462 0
-51 -248 -279 0
-33 -55 -398 0
98 -263 -303 0
56 -76 -425 0
-19 -384 475 0
107 177 496 0
19 155 180 0
-41 96 -225 0
87 -104 -402 0
360 -431 -457 0
-17 -232 -401 0
99 150 -343 0
156 193 -337 0
-2 226 266 0
115 374 -396 0
151 296 -476 0
268 -477 -491 0
5 131 459 0
74 -100 328 0
-19 165 453 0
30 -109 -241 0
-108 123 -128 0
19 79 -465 0
160 163 -488 0
-12 -243 -459 0
90 340 493 0
-288 374 381 0
52 131 153 0
-53 124 -328 0
214 -283 -414 0
444 462 488 0
180 213 400 0
-92 -268 -378 0
10 -94 308 0
-37 317 497 0
36 79 -254 0
-86 348 -476 0
-157 -247 487 0
-19 -80 499 0
-6 86 -450 0
17 221 -395 0
304 -319 -396 0
178 323 421 0
-190 293 405 0
-141 -337 392 0
-205 -219 -284 0
71 221 277 0
-38 458 -460 0
149 -166 303 0
-52 -143 271 0
-364 384 393 0
-134 -253 -466 0
96 153 -173 0
17 -216 337 0
212 -238 319 0
336 477 -483 0
-28 204 -210 0
249 284 -458 0
156 296 -335 0
-118 -187 -343 0
-154 291 339 0
-148 303 308 0
43 115 384 0
-123 312 -383 0
-18 -98 -175 0
-407 418 -452 0
180 351 -389 0
-88 -180 219 0
-164 -339 428 0
-12 133 227 0
-147 451 469 0
43 193 465 0
-39 -68 462 0
245 -485 -492 0
-202 -295 -434 0
155 -399 455 0
4 -105 -431 0
83 109 123 0
-147 -163 -498 0
93 169 -176 0
-86 232 -296 0
1 -53 107 0
15 235 -470 0
-88 111 224 0
-112 377 -433 0
-167 -248 -290 0
-231 -259 432 0
-240 425 431 0
343 420 -468 0
-442 470 -479 0
-365 452 457 0
61 -213 -288 0
192 -359 -469 0
-157 252 266 0
-31 -32 -81 0
-200 345 -477 0
55 102 411 0
62 -176 263 0
207 -293 -433 0
87 -345 450 0
-142 434 474 0
244 -355 359 0
66 219 -485 0
-59 313 421 0
94 209 -305 0
269 468 -498 0
78 -220 -466 0
172 -197 225 0
42 213 324 0
76 -403 439 0
-19 -161 -340 0
21 92 -233 0
-59 -232 -425 0
-255 -284 459 0
-62 65 251 0
-73 243 -268 0
346 380 -464 0
-34 -152 -222 0
312 362 424 0
57 -323 -364 0
87 -388 449 0
-140 316 -427 0
141 -148 -435 0
128 -385 481 0
-271 283 -292 0
-74 117 -262 0
49 -127 -472 0
34 -298 451 0
-235 -445 -474 0
-41 145 405 0
65 362 -424 0
252 -378 381 0
119 245 -497 0
279 379 -400 0
127 371 499 0
-50 203 487 0
79 -197 -212 0
-237 -265 282 0
-30 287 409 0
-81 90 -326 0
-178 -267 -357 0
55 224 265 0
65 -94 303 0
-163 187 334 0
107 -393 449 0
21 -98 -375 0
-56 214 -276 0
-90 -315 430 0
-274 -448 465 0
100 160 162 0
78 -154 -375 0
271 325 -467 0
-109 163 301 0
144 302 -456 0
-227 -352 -403 0
158 -306 389 0
415 454 488 0
33 -351 -357 0
39 -162 -221 0
-9 92 391 0
119 135 470 0
-214 -291 409 0
-2 -295 430 0
207 -256 466 0
54 264 -494 0
150 -151 -389 0
15 -365 413 0
-208 -256 -376 0
-106 -256 356 0
-144 276 361 0
-52 -412 472 0
-17 -300 420 0
227 331 345 0
38 -106 -248 0
16 -108 -356 0
55 258 282 0
253 322 -337 0
-160 -282 -483 0
-69 -407 -467 0
-143 -241 -295 0
120 -424 -459 0
-63 165 333 0
-71 -120 383 0
21 -193 -317 0
-7 -159 329 0
-44 -212 -375 0
-115 -295 -299 0
139 368 -380 0
229 -414 -449 0
42 90 -136 0
-112 -486 -492 0
-251 -304 -492 0
15 -195 498 0
89 -199 -259 0
-79 -86 -481 0
229 -384 -447 0
176 239 397 0
-190 271 -437 0
-88 251 -355 0
-120 136 186 0
-172 233 -495 0
80 -139 -217 0
320 454 -476 0
-7 -128 -350 0
-119 -336 -337 0
-292 327 329 0
73 -370 382 0
234 296 377 0
253 269 447 0
37 -185 -213 0
-58 68 200 0
-279 -352 432 0
357 434 -496 0
230 271 315 0
157 -399 407 0
193 218 -493 0
75 -298 301 0
-212 237 488 0
-70 274 491 0
121 -160 379 0
151 -179 -436 0
153 -315 -454 0
26 -232 285 0
43 -51 153 0
-227 -363 416 0
-103 186 339 0
119 361 -362 0
-357 383 479 0
-18 -258 -374 0
228 309 -426 0
-33 321 380 0
129 247 -352 0
-140 313 -412 0
166 204 -482 0
-58 -202 -353 0
-106 -141 213 0
-32 65 -115 0
-89 -365 400 0
86 136 -244 0
-150 -334 -406 0
-264 -273 -358 0
-155 -183 -377 0
8 -48 446 0
23 272 380 0
258 304 -412 0
124 273 -450 0
-24 98 452 0
6 426 -454 0
-148 -159 442 0
-75 190 459 0
8 21 61 0
-110 -424 448 0
28 71 -245 0
-161 409 457 0
-313 -366 -447 0
287 292 -422 0
98 -131 329 0
-153 -182 -230 0
-132 -335 -398 0
63 194 -395 0
33 -292 -378 0
-231 -311 -401 0
-2 102 236 0
-381 -428 -467 0
-47 347 -423 0
-81 -449 470 0
-87 -316 -393 0
-325 378 -387 0
-138 -165 -437 0
-113 248 -408 0
-71 -403 -419 0
262 295 -421 0
147 219 -376 0
-51 174 215 0
-159 -200 481 0
-22 -238 385 0
-39 -254 -400 0
82 340 361 0
-293 -352 -450 0
-19 269 -328 0
60 61 -343 0
-58 -256 277 0
-69 186 374 0
-22 -366 -488 0
204 -311 -474 0
265 -286 416 0
-137 -230 365 0
208 -253 312 0
-12 144 414 0
134 -261 -382 0
-24 -132 430 0
-27 357 492 0
8 10 -382 0
-18 56 461 0
-83 -240 257 0
-140 -185 229 0
123 291 -388 0
-155 -461 471 0
12 185 227 0
124 -172 -253 0
63 155 -430 0
-48 224 404 0
182 193 430 0
123 -297 -328 0
-163 -296 355 0
103 229 -285 0
219 248 -455 0
-218 304 439 0
130 172 -213 0
-11 92 -368 0
-242 317 -344 0
154 -205 -432 0
35 -199 314 0
-179 -293 430 0
153 -316 442 0
286 -303 -356 0
112 -323 409 0
-102 122 -217 0
85 354 -492 0
-253 394 -470 0
176 -325 -364 0
-88 -177 208 0
186 340 -425 0
185 -223 269 0
-60 -239 285 0
331 -340 -408 0
127 413 440 0
155 -207 -229 0
40 212 431 0
163 302 -340 0
188 -381 493 0
154 186 -390 0
-207 372 -428 0
175 244 -384 0
288 -347 484 0
152 317 -391 0
-127 -191 -213 0
107 -109 -197 0
-35 -187 -468 0
80 -118 -496 0
24 113 214 0
-167 -172 -273 0
-65 84 -209 0
-55 237 -279 0
299 -438 -476 0
-54 373 471 0
-173 -419 -444 0
9 -219 -492 0
-54 68 -250 0
159 -434 453 0
156 -191 -487 0
-226 229 -450 0
-166 190 -445 0
-251 367 486 0
350 -369 493 0
7 -89 399 0
66 72 409 0
-107 171 287 0
-261 373 -439 0
-29 -388 429 0
-152 -333 -352 0
132 -245 299 0
3 -92 -460 0
108 -114 410 0
-28 182 462 0
-22 247 467 0
-41 -187 -287 0
-273 -430 -496 0
71 -196 -282 0
297 -348 -500 0
-132 175 -199 0
154 -427 -451 0
-125 382 -443 0
191 -396 494 0
-32 55 104 0
17 202 -228 0
-4 380 404 0
-296 372 -478 0
-82 215 472 0
-2 14 48 0
128 290 -357 0
-292 -312 -486 0
159 273 -311 0
59 374 479 0
-248 -367 -482 0
58 -254 394 0
247 -294 414 0
218 246 -370 0
46 -254 443 0
-88 -365 -440 0
-98 101 -295 0
-1 94 241 0
6 161 -388 0
-101 -188 241 0
-134 205 -474 0
92 156 -225 0
143 287 455 0
132 -396 447 0
114 317 -494 0
-1 370 -444 0
32 110 417 0
-289 430 -460 0
30 203 -211 0
59 -292 403 0
131 320 446 0
-50 -255 -309 0
168 -215 427 0
12 -193 -470 0
-87 216 -220 0
142 -183 329 0
-9 -127 462 0
149 -177 -290 0
32 -114 392 0
48 -215 -250 0
76 -400 460 0
-202 -458 480 0
-25 162 -194 0
320 -414 431 0
-170 -237 452 0
397 420 479 0
-182 -223 234 0
98 306 406 0
279 414 -486 0
135 -212 -391 0
-10 223 292 0
25 50 -154 0
176 -294 -485 0
104 -196 233 0
-69 110 248 0
-9 119 -265 0
157 322 -365 0
-141 -234 285 0
44 -335 384 0
68 -221 296 0
-104 178 -470 0
-5 -150 421 0
-162 248 422 0
-186 -234 396 0
186 -222 452 0
98 226 -474 0
33 201 427 0
175 372 -375 0
-103 -108 252 0
-53 -309 -334 0
6 -285 -362 0
-69 147 255 0
-117 -143 489 0
8 -20 490 0
43 63 -366 0
289 -305 335 0
-64 174 418 0
9 156 401 0
142 146 437 0
190 225 -417 0
-327 -464 -494 0
134 276 450 0
-157 284 333 0
8 -285 340 0
188 195 -260 0
-13 -104 157 0
-96 -179 -207 0
95 391 443 0
27 -100 111 0
-235 -399 435 0
79 -139 283 0
-79 98 -152 0
91 122 302 0
-89 -183 194 0
39 -175 446 0
255 -370 -426 0
4 217 -479 0
-172 -200 -217 0
126 374 -442 0
113 -326 -482 0
128 -207 446 0
13 -405 408 0
4 82 -119 0
58 185 -489 0
-136 250 -438 0
-138 -268 -352 0
-193 -304 384 0
34 152 317 0
-375 -406 432 0
-91 -467 -496 0
165 -255 444 0
-93 -257 -346 0
245 294 -329 0
121 -242 489 0
184 352 -459 0
60 -139 235 0
-190 -240 -485 0
88 -284 -380 0
-113 133 -159 0
-223 316 374 0
104 199 235 0
-94 120 123 0
-4 -13 154 0
5 105 -313 0
151 -235 -472 0
77 144 310 0
26 99 287 0
114 118 -238 0
415 -424 476 0
81 110 397 0
-35 -472 490 0
